p cnf 1267 51308
1 8 15 22 29 36 0
-1 -8 0
-1 -15 0
-1 -22 0
-1 -29 0
-1 -36 0
-8 -15 0
-8 -22 0
-8 -29 0
-8 -36 0
-15 -22 0
-15 -29 0
-15 -36 0
-22 -29 0
-22 -36 0
-29 -36 0
148 155 162 0
-148 -155 0
-148 -162 0
-155 -162 0
43 50 57 64 71 78 0
-43 -50 0
-43 -57 0
-43 -64 0
-43 -71 0
-43 -78 0
-50 -57 0
-50 -64 0
-50 -71 0
-50 -78 0
-57 -64 0
-57 -71 0
-57 -78 0
-64 -71 0
-64 -78 0
-71 -78 0
169 176 183 0
-169 -176 0
-169 -183 0
-176 -183 0
85 92 99 106 113 0
-85 -92 0
-85 -99 0
-85 -106 0
-85 -113 0
-92 -99 0
-92 -106 0
-92 -113 0
-99 -106 0
-99 -113 0
-106 -113 0
190 197 204 0
-190 -197 0
-190 -204 0
-197 -204 0
120 127 134 141 0
-120 -127 0
-120 -134 0
-120 -141 0
-127 -134 0
-127 -141 0
-134 -141 0
211 218 225 0
-211 -218 0
-211 -225 0
-218 -225 0
2 9 16 23 30 37 0
-2 -9 0
-2 -16 0
-2 -23 0
-2 -30 0
-2 -37 0
-9 -16 0
-9 -23 0
-9 -30 0
-9 -37 0
-16 -23 0
-16 -30 0
-16 -37 0
-23 -30 0
-23 -37 0
-30 -37 0
149 156 163 0
-149 -156 0
-149 -163 0
-156 -163 0
44 51 58 65 72 79 0
-44 -51 0
-44 -58 0
-44 -65 0
-44 -72 0
-44 -79 0
-51 -58 0
-51 -65 0
-51 -72 0
-51 -79 0
-58 -65 0
-58 -72 0
-58 -79 0
-65 -72 0
-65 -79 0
-72 -79 0
170 177 184 0
-170 -177 0
-170 -184 0
-177 -184 0
86 93 100 107 114 0
-86 -93 0
-86 -100 0
-86 -107 0
-86 -114 0
-93 -100 0
-93 -107 0
-93 -114 0
-100 -107 0
-100 -114 0
-107 -114 0
191 198 205 0
-191 -198 0
-191 -205 0
-198 -205 0
121 128 135 142 0
-121 -128 0
-121 -135 0
-121 -142 0
-128 -135 0
-128 -142 0
-135 -142 0
212 219 226 0
-212 -219 0
-212 -226 0
-219 -226 0
3 10 17 24 31 38 0
-3 -10 0
-3 -17 0
-3 -24 0
-3 -31 0
-3 -38 0
-10 -17 0
-10 -24 0
-10 -31 0
-10 -38 0
-17 -24 0
-17 -31 0
-17 -38 0
-24 -31 0
-24 -38 0
-31 -38 0
150 157 164 0
-150 -157 0
-150 -164 0
-157 -164 0
45 52 59 66 73 80 0
-45 -52 0
-45 -59 0
-45 -66 0
-45 -73 0
-45 -80 0
-52 -59 0
-52 -66 0
-52 -73 0
-52 -80 0
-59 -66 0
-59 -73 0
-59 -80 0
-66 -73 0
-66 -80 0
-73 -80 0
171 178 185 0
-171 -178 0
-171 -185 0
-178 -185 0
87 94 101 108 115 0
-87 -94 0
-87 -101 0
-87 -108 0
-87 -115 0
-94 -101 0
-94 -108 0
-94 -115 0
-101 -108 0
-101 -115 0
-108 -115 0
192 199 206 0
-192 -199 0
-192 -206 0
-199 -206 0
122 129 136 143 0
-122 -129 0
-122 -136 0
-122 -143 0
-129 -136 0
-129 -143 0
-136 -143 0
213 220 227 0
-213 -220 0
-213 -227 0
-220 -227 0
4 11 18 25 32 39 0
-4 -11 0
-4 -18 0
-4 -25 0
-4 -32 0
-4 -39 0
-11 -18 0
-11 -25 0
-11 -32 0
-11 -39 0
-18 -25 0
-18 -32 0
-18 -39 0
-25 -32 0
-25 -39 0
-32 -39 0
151 158 165 0
-151 -158 0
-151 -165 0
-158 -165 0
46 53 60 67 74 81 0
-46 -53 0
-46 -60 0
-46 -67 0
-46 -74 0
-46 -81 0
-53 -60 0
-53 -67 0
-53 -74 0
-53 -81 0
-60 -67 0
-60 -74 0
-60 -81 0
-67 -74 0
-67 -81 0
-74 -81 0
172 179 186 0
-172 -179 0
-172 -186 0
-179 -186 0
88 95 102 109 116 0
-88 -95 0
-88 -102 0
-88 -109 0
-88 -116 0
-95 -102 0
-95 -109 0
-95 -116 0
-102 -109 0
-102 -116 0
-109 -116 0
193 200 207 0
-193 -200 0
-193 -207 0
-200 -207 0
123 130 137 144 0
-123 -130 0
-123 -137 0
-123 -144 0
-130 -137 0
-130 -144 0
-137 -144 0
214 221 228 0
-214 -221 0
-214 -228 0
-221 -228 0
5 12 19 26 33 40 0
-5 -12 0
-5 -19 0
-5 -26 0
-5 -33 0
-5 -40 0
-12 -19 0
-12 -26 0
-12 -33 0
-12 -40 0
-19 -26 0
-19 -33 0
-19 -40 0
-26 -33 0
-26 -40 0
-33 -40 0
152 159 166 0
-152 -159 0
-152 -166 0
-159 -166 0
47 54 61 68 75 82 0
-47 -54 0
-47 -61 0
-47 -68 0
-47 -75 0
-47 -82 0
-54 -61 0
-54 -68 0
-54 -75 0
-54 -82 0
-61 -68 0
-61 -75 0
-61 -82 0
-68 -75 0
-68 -82 0
-75 -82 0
173 180 187 0
-173 -180 0
-173 -187 0
-180 -187 0
89 96 103 110 117 0
-89 -96 0
-89 -103 0
-89 -110 0
-89 -117 0
-96 -103 0
-96 -110 0
-96 -117 0
-103 -110 0
-103 -117 0
-110 -117 0
194 201 208 0
-194 -201 0
-194 -208 0
-201 -208 0
124 131 138 145 0
-124 -131 0
-124 -138 0
-124 -145 0
-131 -138 0
-131 -145 0
-138 -145 0
215 222 229 0
-215 -222 0
-215 -229 0
-222 -229 0
6 13 20 27 34 41 0
-6 -13 0
-6 -20 0
-6 -27 0
-6 -34 0
-6 -41 0
-13 -20 0
-13 -27 0
-13 -34 0
-13 -41 0
-20 -27 0
-20 -34 0
-20 -41 0
-27 -34 0
-27 -41 0
-34 -41 0
153 160 167 0
-153 -160 0
-153 -167 0
-160 -167 0
48 55 62 69 76 83 0
-48 -55 0
-48 -62 0
-48 -69 0
-48 -76 0
-48 -83 0
-55 -62 0
-55 -69 0
-55 -76 0
-55 -83 0
-62 -69 0
-62 -76 0
-62 -83 0
-69 -76 0
-69 -83 0
-76 -83 0
174 181 188 0
-174 -181 0
-174 -188 0
-181 -188 0
90 97 104 111 118 0
-90 -97 0
-90 -104 0
-90 -111 0
-90 -118 0
-97 -104 0
-97 -111 0
-97 -118 0
-104 -111 0
-104 -118 0
-111 -118 0
195 202 209 0
-195 -202 0
-195 -209 0
-202 -209 0
125 132 139 146 0
-125 -132 0
-125 -139 0
-125 -146 0
-132 -139 0
-132 -146 0
-139 -146 0
216 223 230 0
-216 -223 0
-216 -230 0
-223 -230 0
7 14 21 28 35 42 0
-7 -14 0
-7 -21 0
-7 -28 0
-7 -35 0
-7 -42 0
-14 -21 0
-14 -28 0
-14 -35 0
-14 -42 0
-21 -28 0
-21 -35 0
-21 -42 0
-28 -35 0
-28 -42 0
-35 -42 0
154 161 168 0
-154 -161 0
-154 -168 0
-161 -168 0
49 56 63 70 77 84 0
-49 -56 0
-49 -63 0
-49 -70 0
-49 -77 0
-49 -84 0
-56 -63 0
-56 -70 0
-56 -77 0
-56 -84 0
-63 -70 0
-63 -77 0
-63 -84 0
-70 -77 0
-70 -84 0
-77 -84 0
175 182 189 0
-175 -182 0
-175 -189 0
-182 -189 0
91 98 105 112 119 0
-91 -98 0
-91 -105 0
-91 -112 0
-91 -119 0
-98 -105 0
-98 -112 0
-98 -119 0
-105 -112 0
-105 -119 0
-112 -119 0
196 203 210 0
-196 -203 0
-196 -210 0
-203 -210 0
126 133 140 147 0
-126 -133 0
-126 -140 0
-126 -147 0
-133 -140 0
-133 -147 0
-140 -147 0
217 224 231 0
-217 -224 0
-217 -231 0
-224 -231 0
-260 148 0
-260 1 0
-1 -148 260 0
-281 148 0
-281 8 0
-8 -148 281 0
-302 148 0
-302 15 0
-15 -148 302 0
-323 148 0
-323 22 0
-22 -148 323 0
-344 148 0
-344 29 0
-29 -148 344 0
-365 148 0
-365 36 0
-36 -148 365 0
-267 155 0
-267 1 0
-1 -155 267 0
-288 155 0
-288 8 0
-8 -155 288 0
-309 155 0
-309 15 0
-15 -155 309 0
-330 155 0
-330 22 0
-22 -155 330 0
-351 155 0
-351 29 0
-29 -155 351 0
-372 155 0
-372 36 0
-36 -155 372 0
-274 162 0
-274 1 0
-1 -162 274 0
-295 162 0
-295 8 0
-8 -162 295 0
-316 162 0
-316 15 0
-15 -162 316 0
-337 162 0
-337 22 0
-22 -162 337 0
-358 162 0
-358 29 0
-29 -162 358 0
-379 162 0
-379 36 0
-36 -162 379 0
-386 169 0
-386 43 0
-43 -169 386 0
-407 169 0
-407 50 0
-50 -169 407 0
-428 169 0
-428 57 0
-57 -169 428 0
-449 169 0
-449 64 0
-64 -169 449 0
-470 169 0
-470 71 0
-71 -169 470 0
-491 169 0
-491 78 0
-78 -169 491 0
-393 176 0
-393 43 0
-43 -176 393 0
-414 176 0
-414 50 0
-50 -176 414 0
-435 176 0
-435 57 0
-57 -176 435 0
-456 176 0
-456 64 0
-64 -176 456 0
-477 176 0
-477 71 0
-71 -176 477 0
-498 176 0
-498 78 0
-78 -176 498 0
-400 183 0
-400 43 0
-43 -183 400 0
-421 183 0
-421 50 0
-50 -183 421 0
-442 183 0
-442 57 0
-57 -183 442 0
-463 183 0
-463 64 0
-64 -183 463 0
-484 183 0
-484 71 0
-71 -183 484 0
-505 183 0
-505 78 0
-78 -183 505 0
-512 190 0
-512 85 0
-85 -190 512 0
-533 190 0
-533 85 92 0
-85 -190 533 0
-92 -190 533 0
-554 190 0
-554 92 99 0
-92 -190 554 0
-99 -190 554 0
-575 190 0
-575 99 106 0
-99 -190 575 0
-106 -190 575 0
-596 190 0
-596 106 113 0
-106 -190 596 0
-113 -190 596 0
-617 190 0
-617 113 0
-113 -190 617 0
-519 197 0
-519 85 0
-85 -197 519 0
-540 197 0
-540 85 92 0
-85 -197 540 0
-92 -197 540 0
-561 197 0
-561 92 99 0
-92 -197 561 0
-99 -197 561 0
-582 197 0
-582 99 106 0
-99 -197 582 0
-106 -197 582 0
-603 197 0
-603 106 113 0
-106 -197 603 0
-113 -197 603 0
-624 197 0
-624 113 0
-113 -197 624 0
-526 204 0
-526 85 0
-85 -204 526 0
-547 204 0
-547 85 92 0
-85 -204 547 0
-92 -204 547 0
-568 204 0
-568 92 99 0
-92 -204 568 0
-99 -204 568 0
-589 204 0
-589 99 106 0
-99 -204 589 0
-106 -204 589 0
-610 204 0
-610 106 113 0
-106 -204 610 0
-113 -204 610 0
-631 204 0
-631 113 0
-113 -204 631 0
-638 211 0
-638 120 0
-120 -211 638 0
-659 211 0
-659 120 127 0
-120 -211 659 0
-127 -211 659 0
-680 211 0
-680 120 127 134 0
-120 -211 680 0
-127 -211 680 0
-134 -211 680 0
-701 211 0
-701 127 134 141 0
-127 -211 701 0
-134 -211 701 0
-141 -211 701 0
-722 211 0
-722 134 141 0
-134 -211 722 0
-141 -211 722 0
-743 211 0
-743 141 0
-141 -211 743 0
-645 218 0
-645 120 0
-120 -218 645 0
-666 218 0
-666 120 127 0
-120 -218 666 0
-127 -218 666 0
-687 218 0
-687 120 127 134 0
-120 -218 687 0
-127 -218 687 0
-134 -218 687 0
-708 218 0
-708 127 134 141 0
-127 -218 708 0
-134 -218 708 0
-141 -218 708 0
-729 218 0
-729 134 141 0
-134 -218 729 0
-141 -218 729 0
-750 218 0
-750 141 0
-141 -218 750 0
-652 225 0
-652 120 0
-120 -225 652 0
-673 225 0
-673 120 127 0
-120 -225 673 0
-127 -225 673 0
-694 225 0
-694 120 127 134 0
-120 -225 694 0
-127 -225 694 0
-134 -225 694 0
-715 225 0
-715 127 134 141 0
-127 -225 715 0
-134 -225 715 0
-141 -225 715 0
-736 225 0
-736 134 141 0
-134 -225 736 0
-141 -225 736 0
-757 225 0
-757 141 0
-141 -225 757 0
-261 149 0
-261 2 0
-2 -149 261 0
-282 149 0
-282 9 0
-9 -149 282 0
-303 149 0
-303 16 0
-16 -149 303 0
-324 149 0
-324 23 0
-23 -149 324 0
-345 149 0
-345 30 0
-30 -149 345 0
-366 149 0
-366 37 0
-37 -149 366 0
-268 156 0
-268 2 0
-2 -156 268 0
-289 156 0
-289 9 0
-9 -156 289 0
-310 156 0
-310 16 0
-16 -156 310 0
-331 156 0
-331 23 0
-23 -156 331 0
-352 156 0
-352 30 0
-30 -156 352 0
-373 156 0
-373 37 0
-37 -156 373 0
-275 163 0
-275 2 0
-2 -163 275 0
-296 163 0
-296 9 0
-9 -163 296 0
-317 163 0
-317 16 0
-16 -163 317 0
-338 163 0
-338 23 0
-23 -163 338 0
-359 163 0
-359 30 0
-30 -163 359 0
-380 163 0
-380 37 0
-37 -163 380 0
-387 170 0
-387 44 0
-44 -170 387 0
-408 170 0
-408 51 0
-51 -170 408 0
-429 170 0
-429 58 0
-58 -170 429 0
-450 170 0
-450 65 0
-65 -170 450 0
-471 170 0
-471 72 0
-72 -170 471 0
-492 170 0
-492 79 0
-79 -170 492 0
-394 177 0
-394 44 0
-44 -177 394 0
-415 177 0
-415 51 0
-51 -177 415 0
-436 177 0
-436 58 0
-58 -177 436 0
-457 177 0
-457 65 0
-65 -177 457 0
-478 177 0
-478 72 0
-72 -177 478 0
-499 177 0
-499 79 0
-79 -177 499 0
-401 184 0
-401 44 0
-44 -184 401 0
-422 184 0
-422 51 0
-51 -184 422 0
-443 184 0
-443 58 0
-58 -184 443 0
-464 184 0
-464 65 0
-65 -184 464 0
-485 184 0
-485 72 0
-72 -184 485 0
-506 184 0
-506 79 0
-79 -184 506 0
-513 191 0
-513 86 0
-86 -191 513 0
-534 191 0
-534 86 93 0
-86 -191 534 0
-93 -191 534 0
-555 191 0
-555 93 100 0
-93 -191 555 0
-100 -191 555 0
-576 191 0
-576 100 107 0
-100 -191 576 0
-107 -191 576 0
-597 191 0
-597 107 114 0
-107 -191 597 0
-114 -191 597 0
-618 191 0
-618 114 0
-114 -191 618 0
-520 198 0
-520 86 0
-86 -198 520 0
-541 198 0
-541 86 93 0
-86 -198 541 0
-93 -198 541 0
-562 198 0
-562 93 100 0
-93 -198 562 0
-100 -198 562 0
-583 198 0
-583 100 107 0
-100 -198 583 0
-107 -198 583 0
-604 198 0
-604 107 114 0
-107 -198 604 0
-114 -198 604 0
-625 198 0
-625 114 0
-114 -198 625 0
-527 205 0
-527 86 0
-86 -205 527 0
-548 205 0
-548 86 93 0
-86 -205 548 0
-93 -205 548 0
-569 205 0
-569 93 100 0
-93 -205 569 0
-100 -205 569 0
-590 205 0
-590 100 107 0
-100 -205 590 0
-107 -205 590 0
-611 205 0
-611 107 114 0
-107 -205 611 0
-114 -205 611 0
-632 205 0
-632 114 0
-114 -205 632 0
-639 212 0
-639 121 0
-121 -212 639 0
-660 212 0
-660 121 128 0
-121 -212 660 0
-128 -212 660 0
-681 212 0
-681 121 128 135 0
-121 -212 681 0
-128 -212 681 0
-135 -212 681 0
-702 212 0
-702 128 135 142 0
-128 -212 702 0
-135 -212 702 0
-142 -212 702 0
-723 212 0
-723 135 142 0
-135 -212 723 0
-142 -212 723 0
-744 212 0
-744 142 0
-142 -212 744 0
-646 219 0
-646 121 0
-121 -219 646 0
-667 219 0
-667 121 128 0
-121 -219 667 0
-128 -219 667 0
-688 219 0
-688 121 128 135 0
-121 -219 688 0
-128 -219 688 0
-135 -219 688 0
-709 219 0
-709 128 135 142 0
-128 -219 709 0
-135 -219 709 0
-142 -219 709 0
-730 219 0
-730 135 142 0
-135 -219 730 0
-142 -219 730 0
-751 219 0
-751 142 0
-142 -219 751 0
-653 226 0
-653 121 0
-121 -226 653 0
-674 226 0
-674 121 128 0
-121 -226 674 0
-128 -226 674 0
-695 226 0
-695 121 128 135 0
-121 -226 695 0
-128 -226 695 0
-135 -226 695 0
-716 226 0
-716 128 135 142 0
-128 -226 716 0
-135 -226 716 0
-142 -226 716 0
-737 226 0
-737 135 142 0
-135 -226 737 0
-142 -226 737 0
-758 226 0
-758 142 0
-142 -226 758 0
-262 150 0
-262 3 0
-3 -150 262 0
-283 150 0
-283 10 0
-10 -150 283 0
-304 150 0
-304 17 0
-17 -150 304 0
-325 150 0
-325 24 0
-24 -150 325 0
-346 150 0
-346 31 0
-31 -150 346 0
-367 150 0
-367 38 0
-38 -150 367 0
-269 157 0
-269 3 0
-3 -157 269 0
-290 157 0
-290 10 0
-10 -157 290 0
-311 157 0
-311 17 0
-17 -157 311 0
-332 157 0
-332 24 0
-24 -157 332 0
-353 157 0
-353 31 0
-31 -157 353 0
-374 157 0
-374 38 0
-38 -157 374 0
-276 164 0
-276 3 0
-3 -164 276 0
-297 164 0
-297 10 0
-10 -164 297 0
-318 164 0
-318 17 0
-17 -164 318 0
-339 164 0
-339 24 0
-24 -164 339 0
-360 164 0
-360 31 0
-31 -164 360 0
-381 164 0
-381 38 0
-38 -164 381 0
-388 171 0
-388 45 0
-45 -171 388 0
-409 171 0
-409 52 0
-52 -171 409 0
-430 171 0
-430 59 0
-59 -171 430 0
-451 171 0
-451 66 0
-66 -171 451 0
-472 171 0
-472 73 0
-73 -171 472 0
-493 171 0
-493 80 0
-80 -171 493 0
-395 178 0
-395 45 0
-45 -178 395 0
-416 178 0
-416 52 0
-52 -178 416 0
-437 178 0
-437 59 0
-59 -178 437 0
-458 178 0
-458 66 0
-66 -178 458 0
-479 178 0
-479 73 0
-73 -178 479 0
-500 178 0
-500 80 0
-80 -178 500 0
-402 185 0
-402 45 0
-45 -185 402 0
-423 185 0
-423 52 0
-52 -185 423 0
-444 185 0
-444 59 0
-59 -185 444 0
-465 185 0
-465 66 0
-66 -185 465 0
-486 185 0
-486 73 0
-73 -185 486 0
-507 185 0
-507 80 0
-80 -185 507 0
-514 192 0
-514 87 0
-87 -192 514 0
-535 192 0
-535 87 94 0
-87 -192 535 0
-94 -192 535 0
-556 192 0
-556 94 101 0
-94 -192 556 0
-101 -192 556 0
-577 192 0
-577 101 108 0
-101 -192 577 0
-108 -192 577 0
-598 192 0
-598 108 115 0
-108 -192 598 0
-115 -192 598 0
-619 192 0
-619 115 0
-115 -192 619 0
-521 199 0
-521 87 0
-87 -199 521 0
-542 199 0
-542 87 94 0
-87 -199 542 0
-94 -199 542 0
-563 199 0
-563 94 101 0
-94 -199 563 0
-101 -199 563 0
-584 199 0
-584 101 108 0
-101 -199 584 0
-108 -199 584 0
-605 199 0
-605 108 115 0
-108 -199 605 0
-115 -199 605 0
-626 199 0
-626 115 0
-115 -199 626 0
-528 206 0
-528 87 0
-87 -206 528 0
-549 206 0
-549 87 94 0
-87 -206 549 0
-94 -206 549 0
-570 206 0
-570 94 101 0
-94 -206 570 0
-101 -206 570 0
-591 206 0
-591 101 108 0
-101 -206 591 0
-108 -206 591 0
-612 206 0
-612 108 115 0
-108 -206 612 0
-115 -206 612 0
-633 206 0
-633 115 0
-115 -206 633 0
-640 213 0
-640 122 0
-122 -213 640 0
-661 213 0
-661 122 129 0
-122 -213 661 0
-129 -213 661 0
-682 213 0
-682 122 129 136 0
-122 -213 682 0
-129 -213 682 0
-136 -213 682 0
-703 213 0
-703 129 136 143 0
-129 -213 703 0
-136 -213 703 0
-143 -213 703 0
-724 213 0
-724 136 143 0
-136 -213 724 0
-143 -213 724 0
-745 213 0
-745 143 0
-143 -213 745 0
-647 220 0
-647 122 0
-122 -220 647 0
-668 220 0
-668 122 129 0
-122 -220 668 0
-129 -220 668 0
-689 220 0
-689 122 129 136 0
-122 -220 689 0
-129 -220 689 0
-136 -220 689 0
-710 220 0
-710 129 136 143 0
-129 -220 710 0
-136 -220 710 0
-143 -220 710 0
-731 220 0
-731 136 143 0
-136 -220 731 0
-143 -220 731 0
-752 220 0
-752 143 0
-143 -220 752 0
-654 227 0
-654 122 0
-122 -227 654 0
-675 227 0
-675 122 129 0
-122 -227 675 0
-129 -227 675 0
-696 227 0
-696 122 129 136 0
-122 -227 696 0
-129 -227 696 0
-136 -227 696 0
-717 227 0
-717 129 136 143 0
-129 -227 717 0
-136 -227 717 0
-143 -227 717 0
-738 227 0
-738 136 143 0
-136 -227 738 0
-143 -227 738 0
-759 227 0
-759 143 0
-143 -227 759 0
-263 151 0
-263 4 0
-4 -151 263 0
-284 151 0
-284 11 0
-11 -151 284 0
-305 151 0
-305 18 0
-18 -151 305 0
-326 151 0
-326 25 0
-25 -151 326 0
-347 151 0
-347 32 0
-32 -151 347 0
-368 151 0
-368 39 0
-39 -151 368 0
-270 158 0
-270 4 0
-4 -158 270 0
-291 158 0
-291 11 0
-11 -158 291 0
-312 158 0
-312 18 0
-18 -158 312 0
-333 158 0
-333 25 0
-25 -158 333 0
-354 158 0
-354 32 0
-32 -158 354 0
-375 158 0
-375 39 0
-39 -158 375 0
-277 165 0
-277 4 0
-4 -165 277 0
-298 165 0
-298 11 0
-11 -165 298 0
-319 165 0
-319 18 0
-18 -165 319 0
-340 165 0
-340 25 0
-25 -165 340 0
-361 165 0
-361 32 0
-32 -165 361 0
-382 165 0
-382 39 0
-39 -165 382 0
-389 172 0
-389 46 0
-46 -172 389 0
-410 172 0
-410 53 0
-53 -172 410 0
-431 172 0
-431 60 0
-60 -172 431 0
-452 172 0
-452 67 0
-67 -172 452 0
-473 172 0
-473 74 0
-74 -172 473 0
-494 172 0
-494 81 0
-81 -172 494 0
-396 179 0
-396 46 0
-46 -179 396 0
-417 179 0
-417 53 0
-53 -179 417 0
-438 179 0
-438 60 0
-60 -179 438 0
-459 179 0
-459 67 0
-67 -179 459 0
-480 179 0
-480 74 0
-74 -179 480 0
-501 179 0
-501 81 0
-81 -179 501 0
-403 186 0
-403 46 0
-46 -186 403 0
-424 186 0
-424 53 0
-53 -186 424 0
-445 186 0
-445 60 0
-60 -186 445 0
-466 186 0
-466 67 0
-67 -186 466 0
-487 186 0
-487 74 0
-74 -186 487 0
-508 186 0
-508 81 0
-81 -186 508 0
-515 193 0
-515 88 0
-88 -193 515 0
-536 193 0
-536 88 95 0
-88 -193 536 0
-95 -193 536 0
-557 193 0
-557 95 102 0
-95 -193 557 0
-102 -193 557 0
-578 193 0
-578 102 109 0
-102 -193 578 0
-109 -193 578 0
-599 193 0
-599 109 116 0
-109 -193 599 0
-116 -193 599 0
-620 193 0
-620 116 0
-116 -193 620 0
-522 200 0
-522 88 0
-88 -200 522 0
-543 200 0
-543 88 95 0
-88 -200 543 0
-95 -200 543 0
-564 200 0
-564 95 102 0
-95 -200 564 0
-102 -200 564 0
-585 200 0
-585 102 109 0
-102 -200 585 0
-109 -200 585 0
-606 200 0
-606 109 116 0
-109 -200 606 0
-116 -200 606 0
-627 200 0
-627 116 0
-116 -200 627 0
-529 207 0
-529 88 0
-88 -207 529 0
-550 207 0
-550 88 95 0
-88 -207 550 0
-95 -207 550 0
-571 207 0
-571 95 102 0
-95 -207 571 0
-102 -207 571 0
-592 207 0
-592 102 109 0
-102 -207 592 0
-109 -207 592 0
-613 207 0
-613 109 116 0
-109 -207 613 0
-116 -207 613 0
-634 207 0
-634 116 0
-116 -207 634 0
-641 214 0
-641 123 0
-123 -214 641 0
-662 214 0
-662 123 130 0
-123 -214 662 0
-130 -214 662 0
-683 214 0
-683 123 130 137 0
-123 -214 683 0
-130 -214 683 0
-137 -214 683 0
-704 214 0
-704 130 137 144 0
-130 -214 704 0
-137 -214 704 0
-144 -214 704 0
-725 214 0
-725 137 144 0
-137 -214 725 0
-144 -214 725 0
-746 214 0
-746 144 0
-144 -214 746 0
-648 221 0
-648 123 0
-123 -221 648 0
-669 221 0
-669 123 130 0
-123 -221 669 0
-130 -221 669 0
-690 221 0
-690 123 130 137 0
-123 -221 690 0
-130 -221 690 0
-137 -221 690 0
-711 221 0
-711 130 137 144 0
-130 -221 711 0
-137 -221 711 0
-144 -221 711 0
-732 221 0
-732 137 144 0
-137 -221 732 0
-144 -221 732 0
-753 221 0
-753 144 0
-144 -221 753 0
-655 228 0
-655 123 0
-123 -228 655 0
-676 228 0
-676 123 130 0
-123 -228 676 0
-130 -228 676 0
-697 228 0
-697 123 130 137 0
-123 -228 697 0
-130 -228 697 0
-137 -228 697 0
-718 228 0
-718 130 137 144 0
-130 -228 718 0
-137 -228 718 0
-144 -228 718 0
-739 228 0
-739 137 144 0
-137 -228 739 0
-144 -228 739 0
-760 228 0
-760 144 0
-144 -228 760 0
-264 152 0
-264 5 0
-5 -152 264 0
-285 152 0
-285 12 0
-12 -152 285 0
-306 152 0
-306 19 0
-19 -152 306 0
-327 152 0
-327 26 0
-26 -152 327 0
-348 152 0
-348 33 0
-33 -152 348 0
-369 152 0
-369 40 0
-40 -152 369 0
-271 159 0
-271 5 0
-5 -159 271 0
-292 159 0
-292 12 0
-12 -159 292 0
-313 159 0
-313 19 0
-19 -159 313 0
-334 159 0
-334 26 0
-26 -159 334 0
-355 159 0
-355 33 0
-33 -159 355 0
-376 159 0
-376 40 0
-40 -159 376 0
-278 166 0
-278 5 0
-5 -166 278 0
-299 166 0
-299 12 0
-12 -166 299 0
-320 166 0
-320 19 0
-19 -166 320 0
-341 166 0
-341 26 0
-26 -166 341 0
-362 166 0
-362 33 0
-33 -166 362 0
-383 166 0
-383 40 0
-40 -166 383 0
-390 173 0
-390 47 0
-47 -173 390 0
-411 173 0
-411 54 0
-54 -173 411 0
-432 173 0
-432 61 0
-61 -173 432 0
-453 173 0
-453 68 0
-68 -173 453 0
-474 173 0
-474 75 0
-75 -173 474 0
-495 173 0
-495 82 0
-82 -173 495 0
-397 180 0
-397 47 0
-47 -180 397 0
-418 180 0
-418 54 0
-54 -180 418 0
-439 180 0
-439 61 0
-61 -180 439 0
-460 180 0
-460 68 0
-68 -180 460 0
-481 180 0
-481 75 0
-75 -180 481 0
-502 180 0
-502 82 0
-82 -180 502 0
-404 187 0
-404 47 0
-47 -187 404 0
-425 187 0
-425 54 0
-54 -187 425 0
-446 187 0
-446 61 0
-61 -187 446 0
-467 187 0
-467 68 0
-68 -187 467 0
-488 187 0
-488 75 0
-75 -187 488 0
-509 187 0
-509 82 0
-82 -187 509 0
-516 194 0
-516 89 0
-89 -194 516 0
-537 194 0
-537 89 96 0
-89 -194 537 0
-96 -194 537 0
-558 194 0
-558 96 103 0
-96 -194 558 0
-103 -194 558 0
-579 194 0
-579 103 110 0
-103 -194 579 0
-110 -194 579 0
-600 194 0
-600 110 117 0
-110 -194 600 0
-117 -194 600 0
-621 194 0
-621 117 0
-117 -194 621 0
-523 201 0
-523 89 0
-89 -201 523 0
-544 201 0
-544 89 96 0
-89 -201 544 0
-96 -201 544 0
-565 201 0
-565 96 103 0
-96 -201 565 0
-103 -201 565 0
-586 201 0
-586 103 110 0
-103 -201 586 0
-110 -201 586 0
-607 201 0
-607 110 117 0
-110 -201 607 0
-117 -201 607 0
-628 201 0
-628 117 0
-117 -201 628 0
-530 208 0
-530 89 0
-89 -208 530 0
-551 208 0
-551 89 96 0
-89 -208 551 0
-96 -208 551 0
-572 208 0
-572 96 103 0
-96 -208 572 0
-103 -208 572 0
-593 208 0
-593 103 110 0
-103 -208 593 0
-110 -208 593 0
-614 208 0
-614 110 117 0
-110 -208 614 0
-117 -208 614 0
-635 208 0
-635 117 0
-117 -208 635 0
-642 215 0
-642 124 0
-124 -215 642 0
-663 215 0
-663 124 131 0
-124 -215 663 0
-131 -215 663 0
-684 215 0
-684 124 131 138 0
-124 -215 684 0
-131 -215 684 0
-138 -215 684 0
-705 215 0
-705 131 138 145 0
-131 -215 705 0
-138 -215 705 0
-145 -215 705 0
-726 215 0
-726 138 145 0
-138 -215 726 0
-145 -215 726 0
-747 215 0
-747 145 0
-145 -215 747 0
-649 222 0
-649 124 0
-124 -222 649 0
-670 222 0
-670 124 131 0
-124 -222 670 0
-131 -222 670 0
-691 222 0
-691 124 131 138 0
-124 -222 691 0
-131 -222 691 0
-138 -222 691 0
-712 222 0
-712 131 138 145 0
-131 -222 712 0
-138 -222 712 0
-145 -222 712 0
-733 222 0
-733 138 145 0
-138 -222 733 0
-145 -222 733 0
-754 222 0
-754 145 0
-145 -222 754 0
-656 229 0
-656 124 0
-124 -229 656 0
-677 229 0
-677 124 131 0
-124 -229 677 0
-131 -229 677 0
-698 229 0
-698 124 131 138 0
-124 -229 698 0
-131 -229 698 0
-138 -229 698 0
-719 229 0
-719 131 138 145 0
-131 -229 719 0
-138 -229 719 0
-145 -229 719 0
-740 229 0
-740 138 145 0
-138 -229 740 0
-145 -229 740 0
-761 229 0
-761 145 0
-145 -229 761 0
-265 153 0
-265 6 0
-6 -153 265 0
-286 153 0
-286 13 0
-13 -153 286 0
-307 153 0
-307 20 0
-20 -153 307 0
-328 153 0
-328 27 0
-27 -153 328 0
-349 153 0
-349 34 0
-34 -153 349 0
-370 153 0
-370 41 0
-41 -153 370 0
-272 160 0
-272 6 0
-6 -160 272 0
-293 160 0
-293 13 0
-13 -160 293 0
-314 160 0
-314 20 0
-20 -160 314 0
-335 160 0
-335 27 0
-27 -160 335 0
-356 160 0
-356 34 0
-34 -160 356 0
-377 160 0
-377 41 0
-41 -160 377 0
-279 167 0
-279 6 0
-6 -167 279 0
-300 167 0
-300 13 0
-13 -167 300 0
-321 167 0
-321 20 0
-20 -167 321 0
-342 167 0
-342 27 0
-27 -167 342 0
-363 167 0
-363 34 0
-34 -167 363 0
-384 167 0
-384 41 0
-41 -167 384 0
-391 174 0
-391 48 0
-48 -174 391 0
-412 174 0
-412 55 0
-55 -174 412 0
-433 174 0
-433 62 0
-62 -174 433 0
-454 174 0
-454 69 0
-69 -174 454 0
-475 174 0
-475 76 0
-76 -174 475 0
-496 174 0
-496 83 0
-83 -174 496 0
-398 181 0
-398 48 0
-48 -181 398 0
-419 181 0
-419 55 0
-55 -181 419 0
-440 181 0
-440 62 0
-62 -181 440 0
-461 181 0
-461 69 0
-69 -181 461 0
-482 181 0
-482 76 0
-76 -181 482 0
-503 181 0
-503 83 0
-83 -181 503 0
-405 188 0
-405 48 0
-48 -188 405 0
-426 188 0
-426 55 0
-55 -188 426 0
-447 188 0
-447 62 0
-62 -188 447 0
-468 188 0
-468 69 0
-69 -188 468 0
-489 188 0
-489 76 0
-76 -188 489 0
-510 188 0
-510 83 0
-83 -188 510 0
-517 195 0
-517 90 0
-90 -195 517 0
-538 195 0
-538 90 97 0
-90 -195 538 0
-97 -195 538 0
-559 195 0
-559 97 104 0
-97 -195 559 0
-104 -195 559 0
-580 195 0
-580 104 111 0
-104 -195 580 0
-111 -195 580 0
-601 195 0
-601 111 118 0
-111 -195 601 0
-118 -195 601 0
-622 195 0
-622 118 0
-118 -195 622 0
-524 202 0
-524 90 0
-90 -202 524 0
-545 202 0
-545 90 97 0
-90 -202 545 0
-97 -202 545 0
-566 202 0
-566 97 104 0
-97 -202 566 0
-104 -202 566 0
-587 202 0
-587 104 111 0
-104 -202 587 0
-111 -202 587 0
-608 202 0
-608 111 118 0
-111 -202 608 0
-118 -202 608 0
-629 202 0
-629 118 0
-118 -202 629 0
-531 209 0
-531 90 0
-90 -209 531 0
-552 209 0
-552 90 97 0
-90 -209 552 0
-97 -209 552 0
-573 209 0
-573 97 104 0
-97 -209 573 0
-104 -209 573 0
-594 209 0
-594 104 111 0
-104 -209 594 0
-111 -209 594 0
-615 209 0
-615 111 118 0
-111 -209 615 0
-118 -209 615 0
-636 209 0
-636 118 0
-118 -209 636 0
-643 216 0
-643 125 0
-125 -216 643 0
-664 216 0
-664 125 132 0
-125 -216 664 0
-132 -216 664 0
-685 216 0
-685 125 132 139 0
-125 -216 685 0
-132 -216 685 0
-139 -216 685 0
-706 216 0
-706 132 139 146 0
-132 -216 706 0
-139 -216 706 0
-146 -216 706 0
-727 216 0
-727 139 146 0
-139 -216 727 0
-146 -216 727 0
-748 216 0
-748 146 0
-146 -216 748 0
-650 223 0
-650 125 0
-125 -223 650 0
-671 223 0
-671 125 132 0
-125 -223 671 0
-132 -223 671 0
-692 223 0
-692 125 132 139 0
-125 -223 692 0
-132 -223 692 0
-139 -223 692 0
-713 223 0
-713 132 139 146 0
-132 -223 713 0
-139 -223 713 0
-146 -223 713 0
-734 223 0
-734 139 146 0
-139 -223 734 0
-146 -223 734 0
-755 223 0
-755 146 0
-146 -223 755 0
-657 230 0
-657 125 0
-125 -230 657 0
-678 230 0
-678 125 132 0
-125 -230 678 0
-132 -230 678 0
-699 230 0
-699 125 132 139 0
-125 -230 699 0
-132 -230 699 0
-139 -230 699 0
-720 230 0
-720 132 139 146 0
-132 -230 720 0
-139 -230 720 0
-146 -230 720 0
-741 230 0
-741 139 146 0
-139 -230 741 0
-146 -230 741 0
-762 230 0
-762 146 0
-146 -230 762 0
-266 154 0
-266 7 0
-7 -154 266 0
-287 154 0
-287 14 0
-14 -154 287 0
-308 154 0
-308 21 0
-21 -154 308 0
-329 154 0
-329 28 0
-28 -154 329 0
-350 154 0
-350 35 0
-35 -154 350 0
-371 154 0
-371 42 0
-42 -154 371 0
-273 161 0
-273 7 0
-7 -161 273 0
-294 161 0
-294 14 0
-14 -161 294 0
-315 161 0
-315 21 0
-21 -161 315 0
-336 161 0
-336 28 0
-28 -161 336 0
-357 161 0
-357 35 0
-35 -161 357 0
-378 161 0
-378 42 0
-42 -161 378 0
-280 168 0
-280 7 0
-7 -168 280 0
-301 168 0
-301 14 0
-14 -168 301 0
-322 168 0
-322 21 0
-21 -168 322 0
-343 168 0
-343 28 0
-28 -168 343 0
-364 168 0
-364 35 0
-35 -168 364 0
-385 168 0
-385 42 0
-42 -168 385 0
-392 175 0
-392 49 0
-49 -175 392 0
-413 175 0
-413 56 0
-56 -175 413 0
-434 175 0
-434 63 0
-63 -175 434 0
-455 175 0
-455 70 0
-70 -175 455 0
-476 175 0
-476 77 0
-77 -175 476 0
-497 175 0
-497 84 0
-84 -175 497 0
-399 182 0
-399 49 0
-49 -182 399 0
-420 182 0
-420 56 0
-56 -182 420 0
-441 182 0
-441 63 0
-63 -182 441 0
-462 182 0
-462 70 0
-70 -182 462 0
-483 182 0
-483 77 0
-77 -182 483 0
-504 182 0
-504 84 0
-84 -182 504 0
-406 189 0
-406 49 0
-49 -189 406 0
-427 189 0
-427 56 0
-56 -189 427 0
-448 189 0
-448 63 0
-63 -189 448 0
-469 189 0
-469 70 0
-70 -189 469 0
-490 189 0
-490 77 0
-77 -189 490 0
-511 189 0
-511 84 0
-84 -189 511 0
-518 196 0
-518 91 0
-91 -196 518 0
-539 196 0
-539 91 98 0
-91 -196 539 0
-98 -196 539 0
-560 196 0
-560 98 105 0
-98 -196 560 0
-105 -196 560 0
-581 196 0
-581 105 112 0
-105 -196 581 0
-112 -196 581 0
-602 196 0
-602 112 119 0
-112 -196 602 0
-119 -196 602 0
-623 196 0
-623 119 0
-119 -196 623 0
-525 203 0
-525 91 0
-91 -203 525 0
-546 203 0
-546 91 98 0
-91 -203 546 0
-98 -203 546 0
-567 203 0
-567 98 105 0
-98 -203 567 0
-105 -203 567 0
-588 203 0
-588 105 112 0
-105 -203 588 0
-112 -203 588 0
-609 203 0
-609 112 119 0
-112 -203 609 0
-119 -203 609 0
-630 203 0
-630 119 0
-119 -203 630 0
-532 210 0
-532 91 0
-91 -210 532 0
-553 210 0
-553 91 98 0
-91 -210 553 0
-98 -210 553 0
-574 210 0
-574 98 105 0
-98 -210 574 0
-105 -210 574 0
-595 210 0
-595 105 112 0
-105 -210 595 0
-112 -210 595 0
-616 210 0
-616 112 119 0
-112 -210 616 0
-119 -210 616 0
-637 210 0
-637 119 0
-119 -210 637 0
-644 217 0
-644 126 0
-126 -217 644 0
-665 217 0
-665 126 133 0
-126 -217 665 0
-133 -217 665 0
-686 217 0
-686 126 133 140 0
-126 -217 686 0
-133 -217 686 0
-140 -217 686 0
-707 217 0
-707 133 140 147 0
-133 -217 707 0
-140 -217 707 0
-147 -217 707 0
-728 217 0
-728 140 147 0
-140 -217 728 0
-147 -217 728 0
-749 217 0
-749 147 0
-147 -217 749 0
-651 224 0
-651 126 0
-126 -224 651 0
-672 224 0
-672 126 133 0
-126 -224 672 0
-133 -224 672 0
-693 224 0
-693 126 133 140 0
-126 -224 693 0
-133 -224 693 0
-140 -224 693 0
-714 224 0
-714 133 140 147 0
-133 -224 714 0
-140 -224 714 0
-147 -224 714 0
-735 224 0
-735 140 147 0
-140 -224 735 0
-147 -224 735 0
-756 224 0
-756 147 0
-147 -224 756 0
-658 231 0
-658 126 0
-126 -231 658 0
-679 231 0
-679 126 133 0
-126 -231 679 0
-133 -231 679 0
-700 231 0
-700 126 133 140 0
-126 -231 700 0
-133 -231 700 0
-140 -231 700 0
-721 231 0
-721 133 140 147 0
-133 -231 721 0
-140 -231 721 0
-147 -231 721 0
-742 231 0
-742 140 147 0
-140 -231 742 0
-147 -231 742 0
-763 231 0
-763 147 0
-147 -231 763 0
-1 -148 -43 -169 0
-1 -155 -43 -176 0
-1 -162 -43 -183 0
-8 -148 -50 -169 0
-8 -155 -50 -176 0
-8 -162 -50 -183 0
-15 -148 -57 -169 0
-15 -155 -57 -176 0
-15 -162 -57 -183 0
-22 -148 -64 -169 0
-22 -155 -64 -176 0
-22 -162 -64 -183 0
-29 -148 -71 -169 0
-29 -155 -71 -176 0
-29 -162 -71 -183 0
-36 -148 -78 -169 0
-36 -155 -78 -176 0
-36 -162 -78 -183 0
-1 -148 -85 -190 0
-1 -155 -85 -197 0
-1 -162 -85 -204 0
-8 -148 -85 -190 0
-8 -155 -85 -197 0
-8 -162 -85 -204 0
-8 -148 -92 -190 0
-8 -155 -92 -197 0
-8 -162 -92 -204 0
-15 -148 -92 -190 0
-15 -155 -92 -197 0
-15 -162 -92 -204 0
-15 -148 -99 -190 0
-15 -155 -99 -197 0
-15 -162 -99 -204 0
-22 -148 -99 -190 0
-22 -155 -99 -197 0
-22 -162 -99 -204 0
-22 -148 -106 -190 0
-22 -155 -106 -197 0
-22 -162 -106 -204 0
-29 -148 -106 -190 0
-29 -155 -106 -197 0
-29 -162 -106 -204 0
-29 -148 -113 -190 0
-29 -155 -113 -197 0
-29 -162 -113 -204 0
-36 -148 -113 -190 0
-36 -155 -113 -197 0
-36 -162 -113 -204 0
-1 -148 -120 -211 0
-1 -155 -120 -218 0
-1 -162 -120 -225 0
-8 -148 -120 -211 0
-8 -155 -120 -218 0
-8 -162 -120 -225 0
-8 -148 -127 -211 0
-8 -155 -127 -218 0
-8 -162 -127 -225 0
-15 -148 -120 -211 0
-15 -155 -120 -218 0
-15 -162 -120 -225 0
-15 -148 -127 -211 0
-15 -155 -127 -218 0
-15 -162 -127 -225 0
-15 -148 -134 -211 0
-15 -155 -134 -218 0
-15 -162 -134 -225 0
-22 -148 -127 -211 0
-22 -155 -127 -218 0
-22 -162 -127 -225 0
-22 -148 -134 -211 0
-22 -155 -134 -218 0
-22 -162 -134 -225 0
-22 -148 -141 -211 0
-22 -155 -141 -218 0
-22 -162 -141 -225 0
-29 -148 -134 -211 0
-29 -155 -134 -218 0
-29 -162 -134 -225 0
-29 -148 -141 -211 0
-29 -155 -141 -218 0
-29 -162 -141 -225 0
-36 -148 -141 -211 0
-36 -155 -141 -218 0
-36 -162 -141 -225 0
-43 -169 -85 -190 0
-43 -176 -85 -197 0
-43 -183 -85 -204 0
-50 -169 -85 -190 0
-50 -176 -85 -197 0
-50 -183 -85 -204 0
-50 -169 -92 -190 0
-50 -176 -92 -197 0
-50 -183 -92 -204 0
-57 -169 -92 -190 0
-57 -176 -92 -197 0
-57 -183 -92 -204 0
-57 -169 -99 -190 0
-57 -176 -99 -197 0
-57 -183 -99 -204 0
-64 -169 -99 -190 0
-64 -176 -99 -197 0
-64 -183 -99 -204 0
-64 -169 -106 -190 0
-64 -176 -106 -197 0
-64 -183 -106 -204 0
-71 -169 -106 -190 0
-71 -176 -106 -197 0
-71 -183 -106 -204 0
-71 -169 -113 -190 0
-71 -176 -113 -197 0
-71 -183 -113 -204 0
-78 -169 -113 -190 0
-78 -176 -113 -197 0
-78 -183 -113 -204 0
-43 -169 -120 -211 0
-43 -176 -120 -218 0
-43 -183 -120 -225 0
-50 -169 -120 -211 0
-50 -176 -120 -218 0
-50 -183 -120 -225 0
-50 -169 -127 -211 0
-50 -176 -127 -218 0
-50 -183 -127 -225 0
-57 -169 -120 -211 0
-57 -176 -120 -218 0
-57 -183 -120 -225 0
-57 -169 -127 -211 0
-57 -176 -127 -218 0
-57 -183 -127 -225 0
-57 -169 -134 -211 0
-57 -176 -134 -218 0
-57 -183 -134 -225 0
-64 -169 -127 -211 0
-64 -176 -127 -218 0
-64 -183 -127 -225 0
-64 -169 -134 -211 0
-64 -176 -134 -218 0
-64 -183 -134 -225 0
-64 -169 -141 -211 0
-64 -176 -141 -218 0
-64 -183 -141 -225 0
-71 -169 -134 -211 0
-71 -176 -134 -218 0
-71 -183 -134 -225 0
-71 -169 -141 -211 0
-71 -176 -141 -218 0
-71 -183 -141 -225 0
-78 -169 -141 -211 0
-78 -176 -141 -218 0
-78 -183 -141 -225 0
-85 -190 -120 -211 0
-85 -197 -120 -218 0
-85 -204 -120 -225 0
-85 -190 -127 -211 0
-85 -197 -127 -218 0
-85 -204 -127 -225 0
-92 -190 -120 -211 0
-92 -197 -120 -218 0
-92 -204 -120 -225 0
-92 -190 -127 -211 0
-92 -197 -127 -218 0
-92 -204 -127 -225 0
-92 -190 -134 -211 0
-92 -197 -134 -218 0
-92 -204 -134 -225 0
-99 -190 -120 -211 0
-99 -197 -120 -218 0
-99 -204 -120 -225 0
-99 -190 -127 -211 0
-99 -197 -127 -218 0
-99 -204 -127 -225 0
-99 -190 -134 -211 0
-99 -197 -134 -218 0
-99 -204 -134 -225 0
-99 -190 -141 -211 0
-99 -197 -141 -218 0
-99 -204 -141 -225 0
-106 -190 -127 -211 0
-106 -197 -127 -218 0
-106 -204 -127 -225 0
-106 -190 -134 -211 0
-106 -197 -134 -218 0
-106 -204 -134 -225 0
-106 -190 -141 -211 0
-106 -197 -141 -218 0
-106 -204 -141 -225 0
-113 -190 -134 -211 0
-113 -197 -134 -218 0
-113 -204 -134 -225 0
-113 -190 -141 -211 0
-113 -197 -141 -218 0
-113 -204 -141 -225 0
-2 -149 -44 -170 0
-2 -156 -44 -177 0
-2 -163 -44 -184 0
-9 -149 -51 -170 0
-9 -156 -51 -177 0
-9 -163 -51 -184 0
-16 -149 -58 -170 0
-16 -156 -58 -177 0
-16 -163 -58 -184 0
-23 -149 -65 -170 0
-23 -156 -65 -177 0
-23 -163 -65 -184 0
-30 -149 -72 -170 0
-30 -156 -72 -177 0
-30 -163 -72 -184 0
-37 -149 -79 -170 0
-37 -156 -79 -177 0
-37 -163 -79 -184 0
-2 -149 -86 -191 0
-2 -156 -86 -198 0
-2 -163 -86 -205 0
-9 -149 -86 -191 0
-9 -156 -86 -198 0
-9 -163 -86 -205 0
-9 -149 -93 -191 0
-9 -156 -93 -198 0
-9 -163 -93 -205 0
-16 -149 -93 -191 0
-16 -156 -93 -198 0
-16 -163 -93 -205 0
-16 -149 -100 -191 0
-16 -156 -100 -198 0
-16 -163 -100 -205 0
-23 -149 -100 -191 0
-23 -156 -100 -198 0
-23 -163 -100 -205 0
-23 -149 -107 -191 0
-23 -156 -107 -198 0
-23 -163 -107 -205 0
-30 -149 -107 -191 0
-30 -156 -107 -198 0
-30 -163 -107 -205 0
-30 -149 -114 -191 0
-30 -156 -114 -198 0
-30 -163 -114 -205 0
-37 -149 -114 -191 0
-37 -156 -114 -198 0
-37 -163 -114 -205 0
-2 -149 -121 -212 0
-2 -156 -121 -219 0
-2 -163 -121 -226 0
-9 -149 -121 -212 0
-9 -156 -121 -219 0
-9 -163 -121 -226 0
-9 -149 -128 -212 0
-9 -156 -128 -219 0
-9 -163 -128 -226 0
-16 -149 -121 -212 0
-16 -156 -121 -219 0
-16 -163 -121 -226 0
-16 -149 -128 -212 0
-16 -156 -128 -219 0
-16 -163 -128 -226 0
-16 -149 -135 -212 0
-16 -156 -135 -219 0
-16 -163 -135 -226 0
-23 -149 -128 -212 0
-23 -156 -128 -219 0
-23 -163 -128 -226 0
-23 -149 -135 -212 0
-23 -156 -135 -219 0
-23 -163 -135 -226 0
-23 -149 -142 -212 0
-23 -156 -142 -219 0
-23 -163 -142 -226 0
-30 -149 -135 -212 0
-30 -156 -135 -219 0
-30 -163 -135 -226 0
-30 -149 -142 -212 0
-30 -156 -142 -219 0
-30 -163 -142 -226 0
-37 -149 -142 -212 0
-37 -156 -142 -219 0
-37 -163 -142 -226 0
-44 -170 -86 -191 0
-44 -177 -86 -198 0
-44 -184 -86 -205 0
-51 -170 -86 -191 0
-51 -177 -86 -198 0
-51 -184 -86 -205 0
-51 -170 -93 -191 0
-51 -177 -93 -198 0
-51 -184 -93 -205 0
-58 -170 -93 -191 0
-58 -177 -93 -198 0
-58 -184 -93 -205 0
-58 -170 -100 -191 0
-58 -177 -100 -198 0
-58 -184 -100 -205 0
-65 -170 -100 -191 0
-65 -177 -100 -198 0
-65 -184 -100 -205 0
-65 -170 -107 -191 0
-65 -177 -107 -198 0
-65 -184 -107 -205 0
-72 -170 -107 -191 0
-72 -177 -107 -198 0
-72 -184 -107 -205 0
-72 -170 -114 -191 0
-72 -177 -114 -198 0
-72 -184 -114 -205 0
-79 -170 -114 -191 0
-79 -177 -114 -198 0
-79 -184 -114 -205 0
-44 -170 -121 -212 0
-44 -177 -121 -219 0
-44 -184 -121 -226 0
-51 -170 -121 -212 0
-51 -177 -121 -219 0
-51 -184 -121 -226 0
-51 -170 -128 -212 0
-51 -177 -128 -219 0
-51 -184 -128 -226 0
-58 -170 -121 -212 0
-58 -177 -121 -219 0
-58 -184 -121 -226 0
-58 -170 -128 -212 0
-58 -177 -128 -219 0
-58 -184 -128 -226 0
-58 -170 -135 -212 0
-58 -177 -135 -219 0
-58 -184 -135 -226 0
-65 -170 -128 -212 0
-65 -177 -128 -219 0
-65 -184 -128 -226 0
-65 -170 -135 -212 0
-65 -177 -135 -219 0
-65 -184 -135 -226 0
-65 -170 -142 -212 0
-65 -177 -142 -219 0
-65 -184 -142 -226 0
-72 -170 -135 -212 0
-72 -177 -135 -219 0
-72 -184 -135 -226 0
-72 -170 -142 -212 0
-72 -177 -142 -219 0
-72 -184 -142 -226 0
-79 -170 -142 -212 0
-79 -177 -142 -219 0
-79 -184 -142 -226 0
-86 -191 -121 -212 0
-86 -198 -121 -219 0
-86 -205 -121 -226 0
-86 -191 -128 -212 0
-86 -198 -128 -219 0
-86 -205 -128 -226 0
-93 -191 -121 -212 0
-93 -198 -121 -219 0
-93 -205 -121 -226 0
-93 -191 -128 -212 0
-93 -198 -128 -219 0
-93 -205 -128 -226 0
-93 -191 -135 -212 0
-93 -198 -135 -219 0
-93 -205 -135 -226 0
-100 -191 -121 -212 0
-100 -198 -121 -219 0
-100 -205 -121 -226 0
-100 -191 -128 -212 0
-100 -198 -128 -219 0
-100 -205 -128 -226 0
-100 -191 -135 -212 0
-100 -198 -135 -219 0
-100 -205 -135 -226 0
-100 -191 -142 -212 0
-100 -198 -142 -219 0
-100 -205 -142 -226 0
-107 -191 -128 -212 0
-107 -198 -128 -219 0
-107 -205 -128 -226 0
-107 -191 -135 -212 0
-107 -198 -135 -219 0
-107 -205 -135 -226 0
-107 -191 -142 -212 0
-107 -198 -142 -219 0
-107 -205 -142 -226 0
-114 -191 -135 -212 0
-114 -198 -135 -219 0
-114 -205 -135 -226 0
-114 -191 -142 -212 0
-114 -198 -142 -219 0
-114 -205 -142 -226 0
-3 -150 -45 -171 0
-3 -157 -45 -178 0
-3 -164 -45 -185 0
-10 -150 -52 -171 0
-10 -157 -52 -178 0
-10 -164 -52 -185 0
-17 -150 -59 -171 0
-17 -157 -59 -178 0
-17 -164 -59 -185 0
-24 -150 -66 -171 0
-24 -157 -66 -178 0
-24 -164 -66 -185 0
-31 -150 -73 -171 0
-31 -157 -73 -178 0
-31 -164 -73 -185 0
-38 -150 -80 -171 0
-38 -157 -80 -178 0
-38 -164 -80 -185 0
-3 -150 -87 -192 0
-3 -157 -87 -199 0
-3 -164 -87 -206 0
-10 -150 -87 -192 0
-10 -157 -87 -199 0
-10 -164 -87 -206 0
-10 -150 -94 -192 0
-10 -157 -94 -199 0
-10 -164 -94 -206 0
-17 -150 -94 -192 0
-17 -157 -94 -199 0
-17 -164 -94 -206 0
-17 -150 -101 -192 0
-17 -157 -101 -199 0
-17 -164 -101 -206 0
-24 -150 -101 -192 0
-24 -157 -101 -199 0
-24 -164 -101 -206 0
-24 -150 -108 -192 0
-24 -157 -108 -199 0
-24 -164 -108 -206 0
-31 -150 -108 -192 0
-31 -157 -108 -199 0
-31 -164 -108 -206 0
-31 -150 -115 -192 0
-31 -157 -115 -199 0
-31 -164 -115 -206 0
-38 -150 -115 -192 0
-38 -157 -115 -199 0
-38 -164 -115 -206 0
-3 -150 -122 -213 0
-3 -157 -122 -220 0
-3 -164 -122 -227 0
-10 -150 -122 -213 0
-10 -157 -122 -220 0
-10 -164 -122 -227 0
-10 -150 -129 -213 0
-10 -157 -129 -220 0
-10 -164 -129 -227 0
-17 -150 -122 -213 0
-17 -157 -122 -220 0
-17 -164 -122 -227 0
-17 -150 -129 -213 0
-17 -157 -129 -220 0
-17 -164 -129 -227 0
-17 -150 -136 -213 0
-17 -157 -136 -220 0
-17 -164 -136 -227 0
-24 -150 -129 -213 0
-24 -157 -129 -220 0
-24 -164 -129 -227 0
-24 -150 -136 -213 0
-24 -157 -136 -220 0
-24 -164 -136 -227 0
-24 -150 -143 -213 0
-24 -157 -143 -220 0
-24 -164 -143 -227 0
-31 -150 -136 -213 0
-31 -157 -136 -220 0
-31 -164 -136 -227 0
-31 -150 -143 -213 0
-31 -157 -143 -220 0
-31 -164 -143 -227 0
-38 -150 -143 -213 0
-38 -157 -143 -220 0
-38 -164 -143 -227 0
-45 -171 -87 -192 0
-45 -178 -87 -199 0
-45 -185 -87 -206 0
-52 -171 -87 -192 0
-52 -178 -87 -199 0
-52 -185 -87 -206 0
-52 -171 -94 -192 0
-52 -178 -94 -199 0
-52 -185 -94 -206 0
-59 -171 -94 -192 0
-59 -178 -94 -199 0
-59 -185 -94 -206 0
-59 -171 -101 -192 0
-59 -178 -101 -199 0
-59 -185 -101 -206 0
-66 -171 -101 -192 0
-66 -178 -101 -199 0
-66 -185 -101 -206 0
-66 -171 -108 -192 0
-66 -178 -108 -199 0
-66 -185 -108 -206 0
-73 -171 -108 -192 0
-73 -178 -108 -199 0
-73 -185 -108 -206 0
-73 -171 -115 -192 0
-73 -178 -115 -199 0
-73 -185 -115 -206 0
-80 -171 -115 -192 0
-80 -178 -115 -199 0
-80 -185 -115 -206 0
-45 -171 -122 -213 0
-45 -178 -122 -220 0
-45 -185 -122 -227 0
-52 -171 -122 -213 0
-52 -178 -122 -220 0
-52 -185 -122 -227 0
-52 -171 -129 -213 0
-52 -178 -129 -220 0
-52 -185 -129 -227 0
-59 -171 -122 -213 0
-59 -178 -122 -220 0
-59 -185 -122 -227 0
-59 -171 -129 -213 0
-59 -178 -129 -220 0
-59 -185 -129 -227 0
-59 -171 -136 -213 0
-59 -178 -136 -220 0
-59 -185 -136 -227 0
-66 -171 -129 -213 0
-66 -178 -129 -220 0
-66 -185 -129 -227 0
-66 -171 -136 -213 0
-66 -178 -136 -220 0
-66 -185 -136 -227 0
-66 -171 -143 -213 0
-66 -178 -143 -220 0
-66 -185 -143 -227 0
-73 -171 -136 -213 0
-73 -178 -136 -220 0
-73 -185 -136 -227 0
-73 -171 -143 -213 0
-73 -178 -143 -220 0
-73 -185 -143 -227 0
-80 -171 -143 -213 0
-80 -178 -143 -220 0
-80 -185 -143 -227 0
-87 -192 -122 -213 0
-87 -199 -122 -220 0
-87 -206 -122 -227 0
-87 -192 -129 -213 0
-87 -199 -129 -220 0
-87 -206 -129 -227 0
-94 -192 -122 -213 0
-94 -199 -122 -220 0
-94 -206 -122 -227 0
-94 -192 -129 -213 0
-94 -199 -129 -220 0
-94 -206 -129 -227 0
-94 -192 -136 -213 0
-94 -199 -136 -220 0
-94 -206 -136 -227 0
-101 -192 -122 -213 0
-101 -199 -122 -220 0
-101 -206 -122 -227 0
-101 -192 -129 -213 0
-101 -199 -129 -220 0
-101 -206 -129 -227 0
-101 -192 -136 -213 0
-101 -199 -136 -220 0
-101 -206 -136 -227 0
-101 -192 -143 -213 0
-101 -199 -143 -220 0
-101 -206 -143 -227 0
-108 -192 -129 -213 0
-108 -199 -129 -220 0
-108 -206 -129 -227 0
-108 -192 -136 -213 0
-108 -199 -136 -220 0
-108 -206 -136 -227 0
-108 -192 -143 -213 0
-108 -199 -143 -220 0
-108 -206 -143 -227 0
-115 -192 -136 -213 0
-115 -199 -136 -220 0
-115 -206 -136 -227 0
-115 -192 -143 -213 0
-115 -199 -143 -220 0
-115 -206 -143 -227 0
-4 -151 -46 -172 0
-4 -158 -46 -179 0
-4 -165 -46 -186 0
-11 -151 -53 -172 0
-11 -158 -53 -179 0
-11 -165 -53 -186 0
-18 -151 -60 -172 0
-18 -158 -60 -179 0
-18 -165 -60 -186 0
-25 -151 -67 -172 0
-25 -158 -67 -179 0
-25 -165 -67 -186 0
-32 -151 -74 -172 0
-32 -158 -74 -179 0
-32 -165 -74 -186 0
-39 -151 -81 -172 0
-39 -158 -81 -179 0
-39 -165 -81 -186 0
-4 -151 -88 -193 0
-4 -158 -88 -200 0
-4 -165 -88 -207 0
-11 -151 -88 -193 0
-11 -158 -88 -200 0
-11 -165 -88 -207 0
-11 -151 -95 -193 0
-11 -158 -95 -200 0
-11 -165 -95 -207 0
-18 -151 -95 -193 0
-18 -158 -95 -200 0
-18 -165 -95 -207 0
-18 -151 -102 -193 0
-18 -158 -102 -200 0
-18 -165 -102 -207 0
-25 -151 -102 -193 0
-25 -158 -102 -200 0
-25 -165 -102 -207 0
-25 -151 -109 -193 0
-25 -158 -109 -200 0
-25 -165 -109 -207 0
-32 -151 -109 -193 0
-32 -158 -109 -200 0
-32 -165 -109 -207 0
-32 -151 -116 -193 0
-32 -158 -116 -200 0
-32 -165 -116 -207 0
-39 -151 -116 -193 0
-39 -158 -116 -200 0
-39 -165 -116 -207 0
-4 -151 -123 -214 0
-4 -158 -123 -221 0
-4 -165 -123 -228 0
-11 -151 -123 -214 0
-11 -158 -123 -221 0
-11 -165 -123 -228 0
-11 -151 -130 -214 0
-11 -158 -130 -221 0
-11 -165 -130 -228 0
-18 -151 -123 -214 0
-18 -158 -123 -221 0
-18 -165 -123 -228 0
-18 -151 -130 -214 0
-18 -158 -130 -221 0
-18 -165 -130 -228 0
-18 -151 -137 -214 0
-18 -158 -137 -221 0
-18 -165 -137 -228 0
-25 -151 -130 -214 0
-25 -158 -130 -221 0
-25 -165 -130 -228 0
-25 -151 -137 -214 0
-25 -158 -137 -221 0
-25 -165 -137 -228 0
-25 -151 -144 -214 0
-25 -158 -144 -221 0
-25 -165 -144 -228 0
-32 -151 -137 -214 0
-32 -158 -137 -221 0
-32 -165 -137 -228 0
-32 -151 -144 -214 0
-32 -158 -144 -221 0
-32 -165 -144 -228 0
-39 -151 -144 -214 0
-39 -158 -144 -221 0
-39 -165 -144 -228 0
-46 -172 -88 -193 0
-46 -179 -88 -200 0
-46 -186 -88 -207 0
-53 -172 -88 -193 0
-53 -179 -88 -200 0
-53 -186 -88 -207 0
-53 -172 -95 -193 0
-53 -179 -95 -200 0
-53 -186 -95 -207 0
-60 -172 -95 -193 0
-60 -179 -95 -200 0
-60 -186 -95 -207 0
-60 -172 -102 -193 0
-60 -179 -102 -200 0
-60 -186 -102 -207 0
-67 -172 -102 -193 0
-67 -179 -102 -200 0
-67 -186 -102 -207 0
-67 -172 -109 -193 0
-67 -179 -109 -200 0
-67 -186 -109 -207 0
-74 -172 -109 -193 0
-74 -179 -109 -200 0
-74 -186 -109 -207 0
-74 -172 -116 -193 0
-74 -179 -116 -200 0
-74 -186 -116 -207 0
-81 -172 -116 -193 0
-81 -179 -116 -200 0
-81 -186 -116 -207 0
-46 -172 -123 -214 0
-46 -179 -123 -221 0
-46 -186 -123 -228 0
-53 -172 -123 -214 0
-53 -179 -123 -221 0
-53 -186 -123 -228 0
-53 -172 -130 -214 0
-53 -179 -130 -221 0
-53 -186 -130 -228 0
-60 -172 -123 -214 0
-60 -179 -123 -221 0
-60 -186 -123 -228 0
-60 -172 -130 -214 0
-60 -179 -130 -221 0
-60 -186 -130 -228 0
-60 -172 -137 -214 0
-60 -179 -137 -221 0
-60 -186 -137 -228 0
-67 -172 -130 -214 0
-67 -179 -130 -221 0
-67 -186 -130 -228 0
-67 -172 -137 -214 0
-67 -179 -137 -221 0
-67 -186 -137 -228 0
-67 -172 -144 -214 0
-67 -179 -144 -221 0
-67 -186 -144 -228 0
-74 -172 -137 -214 0
-74 -179 -137 -221 0
-74 -186 -137 -228 0
-74 -172 -144 -214 0
-74 -179 -144 -221 0
-74 -186 -144 -228 0
-81 -172 -144 -214 0
-81 -179 -144 -221 0
-81 -186 -144 -228 0
-88 -193 -123 -214 0
-88 -200 -123 -221 0
-88 -207 -123 -228 0
-88 -193 -130 -214 0
-88 -200 -130 -221 0
-88 -207 -130 -228 0
-95 -193 -123 -214 0
-95 -200 -123 -221 0
-95 -207 -123 -228 0
-95 -193 -130 -214 0
-95 -200 -130 -221 0
-95 -207 -130 -228 0
-95 -193 -137 -214 0
-95 -200 -137 -221 0
-95 -207 -137 -228 0
-102 -193 -123 -214 0
-102 -200 -123 -221 0
-102 -207 -123 -228 0
-102 -193 -130 -214 0
-102 -200 -130 -221 0
-102 -207 -130 -228 0
-102 -193 -137 -214 0
-102 -200 -137 -221 0
-102 -207 -137 -228 0
-102 -193 -144 -214 0
-102 -200 -144 -221 0
-102 -207 -144 -228 0
-109 -193 -130 -214 0
-109 -200 -130 -221 0
-109 -207 -130 -228 0
-109 -193 -137 -214 0
-109 -200 -137 -221 0
-109 -207 -137 -228 0
-109 -193 -144 -214 0
-109 -200 -144 -221 0
-109 -207 -144 -228 0
-116 -193 -137 -214 0
-116 -200 -137 -221 0
-116 -207 -137 -228 0
-116 -193 -144 -214 0
-116 -200 -144 -221 0
-116 -207 -144 -228 0
-5 -152 -47 -173 0
-5 -159 -47 -180 0
-5 -166 -47 -187 0
-12 -152 -54 -173 0
-12 -159 -54 -180 0
-12 -166 -54 -187 0
-19 -152 -61 -173 0
-19 -159 -61 -180 0
-19 -166 -61 -187 0
-26 -152 -68 -173 0
-26 -159 -68 -180 0
-26 -166 -68 -187 0
-33 -152 -75 -173 0
-33 -159 -75 -180 0
-33 -166 -75 -187 0
-40 -152 -82 -173 0
-40 -159 -82 -180 0
-40 -166 -82 -187 0
-5 -152 -89 -194 0
-5 -159 -89 -201 0
-5 -166 -89 -208 0
-12 -152 -89 -194 0
-12 -159 -89 -201 0
-12 -166 -89 -208 0
-12 -152 -96 -194 0
-12 -159 -96 -201 0
-12 -166 -96 -208 0
-19 -152 -96 -194 0
-19 -159 -96 -201 0
-19 -166 -96 -208 0
-19 -152 -103 -194 0
-19 -159 -103 -201 0
-19 -166 -103 -208 0
-26 -152 -103 -194 0
-26 -159 -103 -201 0
-26 -166 -103 -208 0
-26 -152 -110 -194 0
-26 -159 -110 -201 0
-26 -166 -110 -208 0
-33 -152 -110 -194 0
-33 -159 -110 -201 0
-33 -166 -110 -208 0
-33 -152 -117 -194 0
-33 -159 -117 -201 0
-33 -166 -117 -208 0
-40 -152 -117 -194 0
-40 -159 -117 -201 0
-40 -166 -117 -208 0
-5 -152 -124 -215 0
-5 -159 -124 -222 0
-5 -166 -124 -229 0
-12 -152 -124 -215 0
-12 -159 -124 -222 0
-12 -166 -124 -229 0
-12 -152 -131 -215 0
-12 -159 -131 -222 0
-12 -166 -131 -229 0
-19 -152 -124 -215 0
-19 -159 -124 -222 0
-19 -166 -124 -229 0
-19 -152 -131 -215 0
-19 -159 -131 -222 0
-19 -166 -131 -229 0
-19 -152 -138 -215 0
-19 -159 -138 -222 0
-19 -166 -138 -229 0
-26 -152 -131 -215 0
-26 -159 -131 -222 0
-26 -166 -131 -229 0
-26 -152 -138 -215 0
-26 -159 -138 -222 0
-26 -166 -138 -229 0
-26 -152 -145 -215 0
-26 -159 -145 -222 0
-26 -166 -145 -229 0
-33 -152 -138 -215 0
-33 -159 -138 -222 0
-33 -166 -138 -229 0
-33 -152 -145 -215 0
-33 -159 -145 -222 0
-33 -166 -145 -229 0
-40 -152 -145 -215 0
-40 -159 -145 -222 0
-40 -166 -145 -229 0
-47 -173 -89 -194 0
-47 -180 -89 -201 0
-47 -187 -89 -208 0
-54 -173 -89 -194 0
-54 -180 -89 -201 0
-54 -187 -89 -208 0
-54 -173 -96 -194 0
-54 -180 -96 -201 0
-54 -187 -96 -208 0
-61 -173 -96 -194 0
-61 -180 -96 -201 0
-61 -187 -96 -208 0
-61 -173 -103 -194 0
-61 -180 -103 -201 0
-61 -187 -103 -208 0
-68 -173 -103 -194 0
-68 -180 -103 -201 0
-68 -187 -103 -208 0
-68 -173 -110 -194 0
-68 -180 -110 -201 0
-68 -187 -110 -208 0
-75 -173 -110 -194 0
-75 -180 -110 -201 0
-75 -187 -110 -208 0
-75 -173 -117 -194 0
-75 -180 -117 -201 0
-75 -187 -117 -208 0
-82 -173 -117 -194 0
-82 -180 -117 -201 0
-82 -187 -117 -208 0
-47 -173 -124 -215 0
-47 -180 -124 -222 0
-47 -187 -124 -229 0
-54 -173 -124 -215 0
-54 -180 -124 -222 0
-54 -187 -124 -229 0
-54 -173 -131 -215 0
-54 -180 -131 -222 0
-54 -187 -131 -229 0
-61 -173 -124 -215 0
-61 -180 -124 -222 0
-61 -187 -124 -229 0
-61 -173 -131 -215 0
-61 -180 -131 -222 0
-61 -187 -131 -229 0
-61 -173 -138 -215 0
-61 -180 -138 -222 0
-61 -187 -138 -229 0
-68 -173 -131 -215 0
-68 -180 -131 -222 0
-68 -187 -131 -229 0
-68 -173 -138 -215 0
-68 -180 -138 -222 0
-68 -187 -138 -229 0
-68 -173 -145 -215 0
-68 -180 -145 -222 0
-68 -187 -145 -229 0
-75 -173 -138 -215 0
-75 -180 -138 -222 0
-75 -187 -138 -229 0
-75 -173 -145 -215 0
-75 -180 -145 -222 0
-75 -187 -145 -229 0
-82 -173 -145 -215 0
-82 -180 -145 -222 0
-82 -187 -145 -229 0
-89 -194 -124 -215 0
-89 -201 -124 -222 0
-89 -208 -124 -229 0
-89 -194 -131 -215 0
-89 -201 -131 -222 0
-89 -208 -131 -229 0
-96 -194 -124 -215 0
-96 -201 -124 -222 0
-96 -208 -124 -229 0
-96 -194 -131 -215 0
-96 -201 -131 -222 0
-96 -208 -131 -229 0
-96 -194 -138 -215 0
-96 -201 -138 -222 0
-96 -208 -138 -229 0
-103 -194 -124 -215 0
-103 -201 -124 -222 0
-103 -208 -124 -229 0
-103 -194 -131 -215 0
-103 -201 -131 -222 0
-103 -208 -131 -229 0
-103 -194 -138 -215 0
-103 -201 -138 -222 0
-103 -208 -138 -229 0
-103 -194 -145 -215 0
-103 -201 -145 -222 0
-103 -208 -145 -229 0
-110 -194 -131 -215 0
-110 -201 -131 -222 0
-110 -208 -131 -229 0
-110 -194 -138 -215 0
-110 -201 -138 -222 0
-110 -208 -138 -229 0
-110 -194 -145 -215 0
-110 -201 -145 -222 0
-110 -208 -145 -229 0
-117 -194 -138 -215 0
-117 -201 -138 -222 0
-117 -208 -138 -229 0
-117 -194 -145 -215 0
-117 -201 -145 -222 0
-117 -208 -145 -229 0
-6 -153 -48 -174 0
-6 -160 -48 -181 0
-6 -167 -48 -188 0
-13 -153 -55 -174 0
-13 -160 -55 -181 0
-13 -167 -55 -188 0
-20 -153 -62 -174 0
-20 -160 -62 -181 0
-20 -167 -62 -188 0
-27 -153 -69 -174 0
-27 -160 -69 -181 0
-27 -167 -69 -188 0
-34 -153 -76 -174 0
-34 -160 -76 -181 0
-34 -167 -76 -188 0
-41 -153 -83 -174 0
-41 -160 -83 -181 0
-41 -167 -83 -188 0
-6 -153 -90 -195 0
-6 -160 -90 -202 0
-6 -167 -90 -209 0
-13 -153 -90 -195 0
-13 -160 -90 -202 0
-13 -167 -90 -209 0
-13 -153 -97 -195 0
-13 -160 -97 -202 0
-13 -167 -97 -209 0
-20 -153 -97 -195 0
-20 -160 -97 -202 0
-20 -167 -97 -209 0
-20 -153 -104 -195 0
-20 -160 -104 -202 0
-20 -167 -104 -209 0
-27 -153 -104 -195 0
-27 -160 -104 -202 0
-27 -167 -104 -209 0
-27 -153 -111 -195 0
-27 -160 -111 -202 0
-27 -167 -111 -209 0
-34 -153 -111 -195 0
-34 -160 -111 -202 0
-34 -167 -111 -209 0
-34 -153 -118 -195 0
-34 -160 -118 -202 0
-34 -167 -118 -209 0
-41 -153 -118 -195 0
-41 -160 -118 -202 0
-41 -167 -118 -209 0
-6 -153 -125 -216 0
-6 -160 -125 -223 0
-6 -167 -125 -230 0
-13 -153 -125 -216 0
-13 -160 -125 -223 0
-13 -167 -125 -230 0
-13 -153 -132 -216 0
-13 -160 -132 -223 0
-13 -167 -132 -230 0
-20 -153 -125 -216 0
-20 -160 -125 -223 0
-20 -167 -125 -230 0
-20 -153 -132 -216 0
-20 -160 -132 -223 0
-20 -167 -132 -230 0
-20 -153 -139 -216 0
-20 -160 -139 -223 0
-20 -167 -139 -230 0
-27 -153 -132 -216 0
-27 -160 -132 -223 0
-27 -167 -132 -230 0
-27 -153 -139 -216 0
-27 -160 -139 -223 0
-27 -167 -139 -230 0
-27 -153 -146 -216 0
-27 -160 -146 -223 0
-27 -167 -146 -230 0
-34 -153 -139 -216 0
-34 -160 -139 -223 0
-34 -167 -139 -230 0
-34 -153 -146 -216 0
-34 -160 -146 -223 0
-34 -167 -146 -230 0
-41 -153 -146 -216 0
-41 -160 -146 -223 0
-41 -167 -146 -230 0
-48 -174 -90 -195 0
-48 -181 -90 -202 0
-48 -188 -90 -209 0
-55 -174 -90 -195 0
-55 -181 -90 -202 0
-55 -188 -90 -209 0
-55 -174 -97 -195 0
-55 -181 -97 -202 0
-55 -188 -97 -209 0
-62 -174 -97 -195 0
-62 -181 -97 -202 0
-62 -188 -97 -209 0
-62 -174 -104 -195 0
-62 -181 -104 -202 0
-62 -188 -104 -209 0
-69 -174 -104 -195 0
-69 -181 -104 -202 0
-69 -188 -104 -209 0
-69 -174 -111 -195 0
-69 -181 -111 -202 0
-69 -188 -111 -209 0
-76 -174 -111 -195 0
-76 -181 -111 -202 0
-76 -188 -111 -209 0
-76 -174 -118 -195 0
-76 -181 -118 -202 0
-76 -188 -118 -209 0
-83 -174 -118 -195 0
-83 -181 -118 -202 0
-83 -188 -118 -209 0
-48 -174 -125 -216 0
-48 -181 -125 -223 0
-48 -188 -125 -230 0
-55 -174 -125 -216 0
-55 -181 -125 -223 0
-55 -188 -125 -230 0
-55 -174 -132 -216 0
-55 -181 -132 -223 0
-55 -188 -132 -230 0
-62 -174 -125 -216 0
-62 -181 -125 -223 0
-62 -188 -125 -230 0
-62 -174 -132 -216 0
-62 -181 -132 -223 0
-62 -188 -132 -230 0
-62 -174 -139 -216 0
-62 -181 -139 -223 0
-62 -188 -139 -230 0
-69 -174 -132 -216 0
-69 -181 -132 -223 0
-69 -188 -132 -230 0
-69 -174 -139 -216 0
-69 -181 -139 -223 0
-69 -188 -139 -230 0
-69 -174 -146 -216 0
-69 -181 -146 -223 0
-69 -188 -146 -230 0
-76 -174 -139 -216 0
-76 -181 -139 -223 0
-76 -188 -139 -230 0
-76 -174 -146 -216 0
-76 -181 -146 -223 0
-76 -188 -146 -230 0
-83 -174 -146 -216 0
-83 -181 -146 -223 0
-83 -188 -146 -230 0
-90 -195 -125 -216 0
-90 -202 -125 -223 0
-90 -209 -125 -230 0
-90 -195 -132 -216 0
-90 -202 -132 -223 0
-90 -209 -132 -230 0
-97 -195 -125 -216 0
-97 -202 -125 -223 0
-97 -209 -125 -230 0
-97 -195 -132 -216 0
-97 -202 -132 -223 0
-97 -209 -132 -230 0
-97 -195 -139 -216 0
-97 -202 -139 -223 0
-97 -209 -139 -230 0
-104 -195 -125 -216 0
-104 -202 -125 -223 0
-104 -209 -125 -230 0
-104 -195 -132 -216 0
-104 -202 -132 -223 0
-104 -209 -132 -230 0
-104 -195 -139 -216 0
-104 -202 -139 -223 0
-104 -209 -139 -230 0
-104 -195 -146 -216 0
-104 -202 -146 -223 0
-104 -209 -146 -230 0
-111 -195 -132 -216 0
-111 -202 -132 -223 0
-111 -209 -132 -230 0
-111 -195 -139 -216 0
-111 -202 -139 -223 0
-111 -209 -139 -230 0
-111 -195 -146 -216 0
-111 -202 -146 -223 0
-111 -209 -146 -230 0
-118 -195 -139 -216 0
-118 -202 -139 -223 0
-118 -209 -139 -230 0
-118 -195 -146 -216 0
-118 -202 -146 -223 0
-118 -209 -146 -230 0
-7 -154 -49 -175 0
-7 -161 -49 -182 0
-7 -168 -49 -189 0
-14 -154 -56 -175 0
-14 -161 -56 -182 0
-14 -168 -56 -189 0
-21 -154 -63 -175 0
-21 -161 -63 -182 0
-21 -168 -63 -189 0
-28 -154 -70 -175 0
-28 -161 -70 -182 0
-28 -168 -70 -189 0
-35 -154 -77 -175 0
-35 -161 -77 -182 0
-35 -168 -77 -189 0
-42 -154 -84 -175 0
-42 -161 -84 -182 0
-42 -168 -84 -189 0
-7 -154 -91 -196 0
-7 -161 -91 -203 0
-7 -168 -91 -210 0
-14 -154 -91 -196 0
-14 -161 -91 -203 0
-14 -168 -91 -210 0
-14 -154 -98 -196 0
-14 -161 -98 -203 0
-14 -168 -98 -210 0
-21 -154 -98 -196 0
-21 -161 -98 -203 0
-21 -168 -98 -210 0
-21 -154 -105 -196 0
-21 -161 -105 -203 0
-21 -168 -105 -210 0
-28 -154 -105 -196 0
-28 -161 -105 -203 0
-28 -168 -105 -210 0
-28 -154 -112 -196 0
-28 -161 -112 -203 0
-28 -168 -112 -210 0
-35 -154 -112 -196 0
-35 -161 -112 -203 0
-35 -168 -112 -210 0
-35 -154 -119 -196 0
-35 -161 -119 -203 0
-35 -168 -119 -210 0
-42 -154 -119 -196 0
-42 -161 -119 -203 0
-42 -168 -119 -210 0
-7 -154 -126 -217 0
-7 -161 -126 -224 0
-7 -168 -126 -231 0
-14 -154 -126 -217 0
-14 -161 -126 -224 0
-14 -168 -126 -231 0
-14 -154 -133 -217 0
-14 -161 -133 -224 0
-14 -168 -133 -231 0
-21 -154 -126 -217 0
-21 -161 -126 -224 0
-21 -168 -126 -231 0
-21 -154 -133 -217 0
-21 -161 -133 -224 0
-21 -168 -133 -231 0
-21 -154 -140 -217 0
-21 -161 -140 -224 0
-21 -168 -140 -231 0
-28 -154 -133 -217 0
-28 -161 -133 -224 0
-28 -168 -133 -231 0
-28 -154 -140 -217 0
-28 -161 -140 -224 0
-28 -168 -140 -231 0
-28 -154 -147 -217 0
-28 -161 -147 -224 0
-28 -168 -147 -231 0
-35 -154 -140 -217 0
-35 -161 -140 -224 0
-35 -168 -140 -231 0
-35 -154 -147 -217 0
-35 -161 -147 -224 0
-35 -168 -147 -231 0
-42 -154 -147 -217 0
-42 -161 -147 -224 0
-42 -168 -147 -231 0
-49 -175 -91 -196 0
-49 -182 -91 -203 0
-49 -189 -91 -210 0
-56 -175 -91 -196 0
-56 -182 -91 -203 0
-56 -189 -91 -210 0
-56 -175 -98 -196 0
-56 -182 -98 -203 0
-56 -189 -98 -210 0
-63 -175 -98 -196 0
-63 -182 -98 -203 0
-63 -189 -98 -210 0
-63 -175 -105 -196 0
-63 -182 -105 -203 0
-63 -189 -105 -210 0
-70 -175 -105 -196 0
-70 -182 -105 -203 0
-70 -189 -105 -210 0
-70 -175 -112 -196 0
-70 -182 -112 -203 0
-70 -189 -112 -210 0
-77 -175 -112 -196 0
-77 -182 -112 -203 0
-77 -189 -112 -210 0
-77 -175 -119 -196 0
-77 -182 -119 -203 0
-77 -189 -119 -210 0
-84 -175 -119 -196 0
-84 -182 -119 -203 0
-84 -189 -119 -210 0
-49 -175 -126 -217 0
-49 -182 -126 -224 0
-49 -189 -126 -231 0
-56 -175 -126 -217 0
-56 -182 -126 -224 0
-56 -189 -126 -231 0
-56 -175 -133 -217 0
-56 -182 -133 -224 0
-56 -189 -133 -231 0
-63 -175 -126 -217 0
-63 -182 -126 -224 0
-63 -189 -126 -231 0
-63 -175 -133 -217 0
-63 -182 -133 -224 0
-63 -189 -133 -231 0
-63 -175 -140 -217 0
-63 -182 -140 -224 0
-63 -189 -140 -231 0
-70 -175 -133 -217 0
-70 -182 -133 -224 0
-70 -189 -133 -231 0
-70 -175 -140 -217 0
-70 -182 -140 -224 0
-70 -189 -140 -231 0
-70 -175 -147 -217 0
-70 -182 -147 -224 0
-70 -189 -147 -231 0
-77 -175 -140 -217 0
-77 -182 -140 -224 0
-77 -189 -140 -231 0
-77 -175 -147 -217 0
-77 -182 -147 -224 0
-77 -189 -147 -231 0
-84 -175 -147 -217 0
-84 -182 -147 -224 0
-84 -189 -147 -231 0
-91 -196 -126 -217 0
-91 -203 -126 -224 0
-91 -210 -126 -231 0
-91 -196 -133 -217 0
-91 -203 -133 -224 0
-91 -210 -133 -231 0
-98 -196 -126 -217 0
-98 -203 -126 -224 0
-98 -210 -126 -231 0
-98 -196 -133 -217 0
-98 -203 -133 -224 0
-98 -210 -133 -231 0
-98 -196 -140 -217 0
-98 -203 -140 -224 0
-98 -210 -140 -231 0
-105 -196 -126 -217 0
-105 -203 -126 -224 0
-105 -210 -126 -231 0
-105 -196 -133 -217 0
-105 -203 -133 -224 0
-105 -210 -133 -231 0
-105 -196 -140 -217 0
-105 -203 -140 -224 0
-105 -210 -140 -231 0
-105 -196 -147 -217 0
-105 -203 -147 -224 0
-105 -210 -147 -231 0
-112 -196 -133 -217 0
-112 -203 -133 -224 0
-112 -210 -133 -231 0
-112 -196 -140 -217 0
-112 -203 -140 -224 0
-112 -210 -140 -231 0
-112 -196 -147 -217 0
-112 -203 -147 -224 0
-112 -210 -147 -231 0
-119 -196 -140 -217 0
-119 -203 -140 -224 0
-119 -210 -140 -231 0
-119 -196 -147 -217 0
-119 -203 -147 -224 0
-119 -210 -147 -231 0
-232 -1 -148 -43 -176 0
-232 -1 -148 -85 -197 0
-232 -1 -148 -120 -218 0
-1 -148 232 43 176 85 197 120 218 0
-232 -1 -155 -43 -183 0
-232 -1 -155 -85 -204 0
-232 -1 -155 -120 -225 0
-1 -155 232 43 183 85 204 120 225 0
-232 -8 -148 -50 -176 0
-232 -8 -148 -85 -197 0
-232 -8 -148 -92 -197 0
-232 -8 -148 -120 -218 0
-232 -8 -148 -127 -218 0
-8 -148 232 50 176 85 197 92 197 120 218 127 218 0
-232 -8 -155 -50 -183 0
-232 -8 -155 -85 -204 0
-232 -8 -155 -92 -204 0
-232 -8 -155 -120 -225 0
-232 -8 -155 -127 -225 0
-8 -155 232 50 183 85 204 92 204 120 225 127 225 0
-232 -15 -148 -57 -176 0
-232 -15 -148 -92 -197 0
-232 -15 -148 -99 -197 0
-232 -15 -148 -120 -218 0
-232 -15 -148 -127 -218 0
-232 -15 -148 -134 -218 0
-15 -148 232 57 176 92 197 99 197 120 218 127 218 134 218 0
-232 -15 -155 -57 -183 0
-232 -15 -155 -92 -204 0
-232 -15 -155 -99 -204 0
-232 -15 -155 -120 -225 0
-232 -15 -155 -127 -225 0
-232 -15 -155 -134 -225 0
-15 -155 232 57 183 92 204 99 204 120 225 127 225 134 225 0
-232 -22 -148 -64 -176 0
-232 -22 -148 -99 -197 0
-232 -22 -148 -106 -197 0
-232 -22 -148 -127 -218 0
-232 -22 -148 -134 -218 0
-232 -22 -148 -141 -218 0
-22 -148 232 64 176 99 197 106 197 127 218 134 218 141 218 0
-232 -22 -155 -64 -183 0
-232 -22 -155 -99 -204 0
-232 -22 -155 -106 -204 0
-232 -22 -155 -127 -225 0
-232 -22 -155 -134 -225 0
-232 -22 -155 -141 -225 0
-22 -155 232 64 183 99 204 106 204 127 225 134 225 141 225 0
-232 -29 -148 -71 -176 0
-232 -29 -148 -106 -197 0
-232 -29 -148 -113 -197 0
-232 -29 -148 -134 -218 0
-232 -29 -148 -141 -218 0
-29 -148 232 71 176 106 197 113 197 134 218 141 218 0
-232 -29 -155 -71 -183 0
-232 -29 -155 -106 -204 0
-232 -29 -155 -113 -204 0
-232 -29 -155 -134 -225 0
-232 -29 -155 -141 -225 0
-29 -155 232 71 183 106 204 113 204 134 225 141 225 0
-232 -36 -148 -78 -176 0
-232 -36 -148 -113 -197 0
-232 -36 -148 -141 -218 0
-36 -148 232 78 176 113 197 141 218 0
-232 -36 -155 -78 -183 0
-232 -36 -155 -113 -204 0
-232 -36 -155 -141 -225 0
-36 -155 232 78 183 113 204 141 225 0
-239 -43 -169 -1 -155 0
-239 -43 -169 -85 -197 0
-239 -43 -169 -120 -218 0
-43 -169 239 1 155 85 197 120 218 0
-239 -43 -176 -1 -162 0
-239 -43 -176 -85 -204 0
-239 -43 -176 -120 -225 0
-43 -176 239 1 162 85 204 120 225 0
-239 -50 -169 -8 -155 0
-239 -50 -169 -85 -197 0
-239 -50 -169 -92 -197 0
-239 -50 -169 -120 -218 0
-239 -50 -169 -127 -218 0
-50 -169 239 8 155 85 197 92 197 120 218 127 218 0
-239 -50 -176 -8 -162 0
-239 -50 -176 -85 -204 0
-239 -50 -176 -92 -204 0
-239 -50 -176 -120 -225 0
-239 -50 -176 -127 -225 0
-50 -176 239 8 162 85 204 92 204 120 225 127 225 0
-239 -57 -169 -15 -155 0
-239 -57 -169 -92 -197 0
-239 -57 -169 -99 -197 0
-239 -57 -169 -120 -218 0
-239 -57 -169 -127 -218 0
-239 -57 -169 -134 -218 0
-57 -169 239 15 155 92 197 99 197 120 218 127 218 134 218 0
-239 -57 -176 -15 -162 0
-239 -57 -176 -92 -204 0
-239 -57 -176 -99 -204 0
-239 -57 -176 -120 -225 0
-239 -57 -176 -127 -225 0
-239 -57 -176 -134 -225 0
-57 -176 239 15 162 92 204 99 204 120 225 127 225 134 225 0
-239 -64 -169 -22 -155 0
-239 -64 -169 -99 -197 0
-239 -64 -169 -106 -197 0
-239 -64 -169 -127 -218 0
-239 -64 -169 -134 -218 0
-239 -64 -169 -141 -218 0
-64 -169 239 22 155 99 197 106 197 127 218 134 218 141 218 0
-239 -64 -176 -22 -162 0
-239 -64 -176 -99 -204 0
-239 -64 -176 -106 -204 0
-239 -64 -176 -127 -225 0
-239 -64 -176 -134 -225 0
-239 -64 -176 -141 -225 0
-64 -176 239 22 162 99 204 106 204 127 225 134 225 141 225 0
-239 -71 -169 -29 -155 0
-239 -71 -169 -106 -197 0
-239 -71 -169 -113 -197 0
-239 -71 -169 -134 -218 0
-239 -71 -169 -141 -218 0
-71 -169 239 29 155 106 197 113 197 134 218 141 218 0
-239 -71 -176 -29 -162 0
-239 -71 -176 -106 -204 0
-239 -71 -176 -113 -204 0
-239 -71 -176 -134 -225 0
-239 -71 -176 -141 -225 0
-71 -176 239 29 162 106 204 113 204 134 225 141 225 0
-239 -78 -169 -36 -155 0
-239 -78 -169 -113 -197 0
-239 -78 -169 -141 -218 0
-78 -169 239 36 155 113 197 141 218 0
-239 -78 -176 -36 -162 0
-239 -78 -176 -113 -204 0
-239 -78 -176 -141 -225 0
-78 -176 239 36 162 113 204 141 225 0
-246 -85 -190 -1 -155 0
-246 -85 -190 -8 -155 0
-246 -85 -190 -43 -176 0
-246 -85 -190 -50 -176 0
-246 -85 -190 -120 -218 0
-246 -85 -190 -127 -218 0
-85 -190 246 1 155 8 155 43 176 50 176 120 218 127 218 0
-246 -85 -197 -1 -162 0
-246 -85 -197 -8 -162 0
-246 -85 -197 -43 -183 0
-246 -85 -197 -50 -183 0
-246 -85 -197 -120 -225 0
-246 -85 -197 -127 -225 0
-85 -197 246 1 162 8 162 43 183 50 183 120 225 127 225 0
-246 -92 -190 -8 -155 0
-246 -92 -190 -15 -155 0
-246 -92 -190 -50 -176 0
-246 -92 -190 -57 -176 0
-246 -92 -190 -120 -218 0
-246 -92 -190 -127 -218 0
-246 -92 -190 -134 -218 0
-92 -190 246 8 155 15 155 50 176 57 176 120 218 127 218 134 218 0
-246 -92 -197 -8 -162 0
-246 -92 -197 -15 -162 0
-246 -92 -197 -50 -183 0
-246 -92 -197 -57 -183 0
-246 -92 -197 -120 -225 0
-246 -92 -197 -127 -225 0
-246 -92 -197 -134 -225 0
-92 -197 246 8 162 15 162 50 183 57 183 120 225 127 225 134 225 0
-246 -99 -190 -15 -155 0
-246 -99 -190 -22 -155 0
-246 -99 -190 -57 -176 0
-246 -99 -190 -64 -176 0
-246 -99 -190 -120 -218 0
-246 -99 -190 -127 -218 0
-246 -99 -190 -134 -218 0
-246 -99 -190 -141 -218 0
-99 -190 246 15 155 22 155 57 176 64 176 120 218 127 218 134 218 141 218 0
-246 -99 -197 -15 -162 0
-246 -99 -197 -22 -162 0
-246 -99 -197 -57 -183 0
-246 -99 -197 -64 -183 0
-246 -99 -197 -120 -225 0
-246 -99 -197 -127 -225 0
-246 -99 -197 -134 -225 0
-246 -99 -197 -141 -225 0
-99 -197 246 15 162 22 162 57 183 64 183 120 225 127 225 134 225 141 225 0
-246 -106 -190 -22 -155 0
-246 -106 -190 -29 -155 0
-246 -106 -190 -64 -176 0
-246 -106 -190 -71 -176 0
-246 -106 -190 -127 -218 0
-246 -106 -190 -134 -218 0
-246 -106 -190 -141 -218 0
-106 -190 246 22 155 29 155 64 176 71 176 127 218 134 218 141 218 0
-246 -106 -197 -22 -162 0
-246 -106 -197 -29 -162 0
-246 -106 -197 -64 -183 0
-246 -106 -197 -71 -183 0
-246 -106 -197 -127 -225 0
-246 -106 -197 -134 -225 0
-246 -106 -197 -141 -225 0
-106 -197 246 22 162 29 162 64 183 71 183 127 225 134 225 141 225 0
-246 -113 -190 -29 -155 0
-246 -113 -190 -36 -155 0
-246 -113 -190 -71 -176 0
-246 -113 -190 -78 -176 0
-246 -113 -190 -134 -218 0
-246 -113 -190 -141 -218 0
-113 -190 246 29 155 36 155 71 176 78 176 134 218 141 218 0
-246 -113 -197 -29 -162 0
-246 -113 -197 -36 -162 0
-246 -113 -197 -71 -183 0
-246 -113 -197 -78 -183 0
-246 -113 -197 -134 -225 0
-246 -113 -197 -141 -225 0
-113 -197 246 29 162 36 162 71 183 78 183 134 225 141 225 0
-253 -120 -211 -1 -155 0
-253 -120 -211 -8 -155 0
-253 -120 -211 -15 -155 0
-253 -120 -211 -43 -176 0
-253 -120 -211 -50 -176 0
-253 -120 -211 -57 -176 0
-253 -120 -211 -85 -197 0
-253 -120 -211 -92 -197 0
-253 -120 -211 -99 -197 0
-120 -211 253 1 155 8 155 15 155 43 176 50 176 57 176 85 197 92 197 99 197 0
-253 -120 -218 -1 -162 0
-253 -120 -218 -8 -162 0
-253 -120 -218 -15 -162 0
-253 -120 -218 -43 -183 0
-253 -120 -218 -50 -183 0
-253 -120 -218 -57 -183 0
-253 -120 -218 -85 -204 0
-253 -120 -218 -92 -204 0
-253 -120 -218 -99 -204 0
-120 -218 253 1 162 8 162 15 162 43 183 50 183 57 183 85 204 92 204 99 204 0
-253 -127 -211 -8 -155 0
-253 -127 -211 -15 -155 0
-253 -127 -211 -22 -155 0
-253 -127 -211 -50 -176 0
-253 -127 -211 -57 -176 0
-253 -127 -211 -64 -176 0
-253 -127 -211 -85 -197 0
-253 -127 -211 -92 -197 0
-253 -127 -211 -99 -197 0
-253 -127 -211 -106 -197 0
-127 -211 253 8 155 15 155 22 155 50 176 57 176 64 176 85 197 92 197 99 197 106 197 0
-253 -127 -218 -8 -162 0
-253 -127 -218 -15 -162 0
-253 -127 -218 -22 -162 0
-253 -127 -218 -50 -183 0
-253 -127 -218 -57 -183 0
-253 -127 -218 -64 -183 0
-253 -127 -218 -85 -204 0
-253 -127 -218 -92 -204 0
-253 -127 -218 -99 -204 0
-253 -127 -218 -106 -204 0
-127 -218 253 8 162 15 162 22 162 50 183 57 183 64 183 85 204 92 204 99 204 106 204 0
-253 -134 -211 -15 -155 0
-253 -134 -211 -22 -155 0
-253 -134 -211 -29 -155 0
-253 -134 -211 -57 -176 0
-253 -134 -211 -64 -176 0
-253 -134 -211 -71 -176 0
-253 -134 -211 -92 -197 0
-253 -134 -211 -99 -197 0
-253 -134 -211 -106 -197 0
-253 -134 -211 -113 -197 0
-134 -211 253 15 155 22 155 29 155 57 176 64 176 71 176 92 197 99 197 106 197 113 197 0
-253 -134 -218 -15 -162 0
-253 -134 -218 -22 -162 0
-253 -134 -218 -29 -162 0
-253 -134 -218 -57 -183 0
-253 -134 -218 -64 -183 0
-253 -134 -218 -71 -183 0
-253 -134 -218 -92 -204 0
-253 -134 -218 -99 -204 0
-253 -134 -218 -106 -204 0
-253 -134 -218 -113 -204 0
-134 -218 253 15 162 22 162 29 162 57 183 64 183 71 183 92 204 99 204 106 204 113 204 0
-253 -141 -211 -22 -155 0
-253 -141 -211 -29 -155 0
-253 -141 -211 -36 -155 0
-253 -141 -211 -64 -176 0
-253 -141 -211 -71 -176 0
-253 -141 -211 -78 -176 0
-253 -141 -211 -99 -197 0
-253 -141 -211 -106 -197 0
-253 -141 -211 -113 -197 0
-141 -211 253 22 155 29 155 36 155 64 176 71 176 78 176 99 197 106 197 113 197 0
-253 -141 -218 -22 -162 0
-253 -141 -218 -29 -162 0
-253 -141 -218 -36 -162 0
-253 -141 -218 -64 -183 0
-253 -141 -218 -71 -183 0
-253 -141 -218 -78 -183 0
-253 -141 -218 -99 -204 0
-253 -141 -218 -106 -204 0
-253 -141 -218 -113 -204 0
-141 -218 253 22 162 29 162 36 162 64 183 71 183 78 183 99 204 106 204 113 204 0
-233 -2 -149 -44 -177 0
-233 -2 -149 -86 -198 0
-233 -2 -149 -121 -219 0
-2 -149 233 44 177 86 198 121 219 0
-233 -2 -156 -44 -184 0
-233 -2 -156 -86 -205 0
-233 -2 -156 -121 -226 0
-2 -156 233 44 184 86 205 121 226 0
-233 -9 -149 -51 -177 0
-233 -9 -149 -86 -198 0
-233 -9 -149 -93 -198 0
-233 -9 -149 -121 -219 0
-233 -9 -149 -128 -219 0
-9 -149 233 51 177 86 198 93 198 121 219 128 219 0
-233 -9 -156 -51 -184 0
-233 -9 -156 -86 -205 0
-233 -9 -156 -93 -205 0
-233 -9 -156 -121 -226 0
-233 -9 -156 -128 -226 0
-9 -156 233 51 184 86 205 93 205 121 226 128 226 0
-233 -16 -149 -58 -177 0
-233 -16 -149 -93 -198 0
-233 -16 -149 -100 -198 0
-233 -16 -149 -121 -219 0
-233 -16 -149 -128 -219 0
-233 -16 -149 -135 -219 0
-16 -149 233 58 177 93 198 100 198 121 219 128 219 135 219 0
-233 -16 -156 -58 -184 0
-233 -16 -156 -93 -205 0
-233 -16 -156 -100 -205 0
-233 -16 -156 -121 -226 0
-233 -16 -156 -128 -226 0
-233 -16 -156 -135 -226 0
-16 -156 233 58 184 93 205 100 205 121 226 128 226 135 226 0
-233 -23 -149 -65 -177 0
-233 -23 -149 -100 -198 0
-233 -23 -149 -107 -198 0
-233 -23 -149 -128 -219 0
-233 -23 -149 -135 -219 0
-233 -23 -149 -142 -219 0
-23 -149 233 65 177 100 198 107 198 128 219 135 219 142 219 0
-233 -23 -156 -65 -184 0
-233 -23 -156 -100 -205 0
-233 -23 -156 -107 -205 0
-233 -23 -156 -128 -226 0
-233 -23 -156 -135 -226 0
-233 -23 -156 -142 -226 0
-23 -156 233 65 184 100 205 107 205 128 226 135 226 142 226 0
-233 -30 -149 -72 -177 0
-233 -30 -149 -107 -198 0
-233 -30 -149 -114 -198 0
-233 -30 -149 -135 -219 0
-233 -30 -149 -142 -219 0
-30 -149 233 72 177 107 198 114 198 135 219 142 219 0
-233 -30 -156 -72 -184 0
-233 -30 -156 -107 -205 0
-233 -30 -156 -114 -205 0
-233 -30 -156 -135 -226 0
-233 -30 -156 -142 -226 0
-30 -156 233 72 184 107 205 114 205 135 226 142 226 0
-233 -37 -149 -79 -177 0
-233 -37 -149 -114 -198 0
-233 -37 -149 -142 -219 0
-37 -149 233 79 177 114 198 142 219 0
-233 -37 -156 -79 -184 0
-233 -37 -156 -114 -205 0
-233 -37 -156 -142 -226 0
-37 -156 233 79 184 114 205 142 226 0
-240 -44 -170 -2 -156 0
-240 -44 -170 -86 -198 0
-240 -44 -170 -121 -219 0
-44 -170 240 2 156 86 198 121 219 0
-240 -44 -177 -2 -163 0
-240 -44 -177 -86 -205 0
-240 -44 -177 -121 -226 0
-44 -177 240 2 163 86 205 121 226 0
-240 -51 -170 -9 -156 0
-240 -51 -170 -86 -198 0
-240 -51 -170 -93 -198 0
-240 -51 -170 -121 -219 0
-240 -51 -170 -128 -219 0
-51 -170 240 9 156 86 198 93 198 121 219 128 219 0
-240 -51 -177 -9 -163 0
-240 -51 -177 -86 -205 0
-240 -51 -177 -93 -205 0
-240 -51 -177 -121 -226 0
-240 -51 -177 -128 -226 0
-51 -177 240 9 163 86 205 93 205 121 226 128 226 0
-240 -58 -170 -16 -156 0
-240 -58 -170 -93 -198 0
-240 -58 -170 -100 -198 0
-240 -58 -170 -121 -219 0
-240 -58 -170 -128 -219 0
-240 -58 -170 -135 -219 0
-58 -170 240 16 156 93 198 100 198 121 219 128 219 135 219 0
-240 -58 -177 -16 -163 0
-240 -58 -177 -93 -205 0
-240 -58 -177 -100 -205 0
-240 -58 -177 -121 -226 0
-240 -58 -177 -128 -226 0
-240 -58 -177 -135 -226 0
-58 -177 240 16 163 93 205 100 205 121 226 128 226 135 226 0
-240 -65 -170 -23 -156 0
-240 -65 -170 -100 -198 0
-240 -65 -170 -107 -198 0
-240 -65 -170 -128 -219 0
-240 -65 -170 -135 -219 0
-240 -65 -170 -142 -219 0
-65 -170 240 23 156 100 198 107 198 128 219 135 219 142 219 0
-240 -65 -177 -23 -163 0
-240 -65 -177 -100 -205 0
-240 -65 -177 -107 -205 0
-240 -65 -177 -128 -226 0
-240 -65 -177 -135 -226 0
-240 -65 -177 -142 -226 0
-65 -177 240 23 163 100 205 107 205 128 226 135 226 142 226 0
-240 -72 -170 -30 -156 0
-240 -72 -170 -107 -198 0
-240 -72 -170 -114 -198 0
-240 -72 -170 -135 -219 0
-240 -72 -170 -142 -219 0
-72 -170 240 30 156 107 198 114 198 135 219 142 219 0
-240 -72 -177 -30 -163 0
-240 -72 -177 -107 -205 0
-240 -72 -177 -114 -205 0
-240 -72 -177 -135 -226 0
-240 -72 -177 -142 -226 0
-72 -177 240 30 163 107 205 114 205 135 226 142 226 0
-240 -79 -170 -37 -156 0
-240 -79 -170 -114 -198 0
-240 -79 -170 -142 -219 0
-79 -170 240 37 156 114 198 142 219 0
-240 -79 -177 -37 -163 0
-240 -79 -177 -114 -205 0
-240 -79 -177 -142 -226 0
-79 -177 240 37 163 114 205 142 226 0
-247 -86 -191 -2 -156 0
-247 -86 -191 -9 -156 0
-247 -86 -191 -44 -177 0
-247 -86 -191 -51 -177 0
-247 -86 -191 -121 -219 0
-247 -86 -191 -128 -219 0
-86 -191 247 2 156 9 156 44 177 51 177 121 219 128 219 0
-247 -86 -198 -2 -163 0
-247 -86 -198 -9 -163 0
-247 -86 -198 -44 -184 0
-247 -86 -198 -51 -184 0
-247 -86 -198 -121 -226 0
-247 -86 -198 -128 -226 0
-86 -198 247 2 163 9 163 44 184 51 184 121 226 128 226 0
-247 -93 -191 -9 -156 0
-247 -93 -191 -16 -156 0
-247 -93 -191 -51 -177 0
-247 -93 -191 -58 -177 0
-247 -93 -191 -121 -219 0
-247 -93 -191 -128 -219 0
-247 -93 -191 -135 -219 0
-93 -191 247 9 156 16 156 51 177 58 177 121 219 128 219 135 219 0
-247 -93 -198 -9 -163 0
-247 -93 -198 -16 -163 0
-247 -93 -198 -51 -184 0
-247 -93 -198 -58 -184 0
-247 -93 -198 -121 -226 0
-247 -93 -198 -128 -226 0
-247 -93 -198 -135 -226 0
-93 -198 247 9 163 16 163 51 184 58 184 121 226 128 226 135 226 0
-247 -100 -191 -16 -156 0
-247 -100 -191 -23 -156 0
-247 -100 -191 -58 -177 0
-247 -100 -191 -65 -177 0
-247 -100 -191 -121 -219 0
-247 -100 -191 -128 -219 0
-247 -100 -191 -135 -219 0
-247 -100 -191 -142 -219 0
-100 -191 247 16 156 23 156 58 177 65 177 121 219 128 219 135 219 142 219 0
-247 -100 -198 -16 -163 0
-247 -100 -198 -23 -163 0
-247 -100 -198 -58 -184 0
-247 -100 -198 -65 -184 0
-247 -100 -198 -121 -226 0
-247 -100 -198 -128 -226 0
-247 -100 -198 -135 -226 0
-247 -100 -198 -142 -226 0
-100 -198 247 16 163 23 163 58 184 65 184 121 226 128 226 135 226 142 226 0
-247 -107 -191 -23 -156 0
-247 -107 -191 -30 -156 0
-247 -107 -191 -65 -177 0
-247 -107 -191 -72 -177 0
-247 -107 -191 -128 -219 0
-247 -107 -191 -135 -219 0
-247 -107 -191 -142 -219 0
-107 -191 247 23 156 30 156 65 177 72 177 128 219 135 219 142 219 0
-247 -107 -198 -23 -163 0
-247 -107 -198 -30 -163 0
-247 -107 -198 -65 -184 0
-247 -107 -198 -72 -184 0
-247 -107 -198 -128 -226 0
-247 -107 -198 -135 -226 0
-247 -107 -198 -142 -226 0
-107 -198 247 23 163 30 163 65 184 72 184 128 226 135 226 142 226 0
-247 -114 -191 -30 -156 0
-247 -114 -191 -37 -156 0
-247 -114 -191 -72 -177 0
-247 -114 -191 -79 -177 0
-247 -114 -191 -135 -219 0
-247 -114 -191 -142 -219 0
-114 -191 247 30 156 37 156 72 177 79 177 135 219 142 219 0
-247 -114 -198 -30 -163 0
-247 -114 -198 -37 -163 0
-247 -114 -198 -72 -184 0
-247 -114 -198 -79 -184 0
-247 -114 -198 -135 -226 0
-247 -114 -198 -142 -226 0
-114 -198 247 30 163 37 163 72 184 79 184 135 226 142 226 0
-254 -121 -212 -2 -156 0
-254 -121 -212 -9 -156 0
-254 -121 -212 -16 -156 0
-254 -121 -212 -44 -177 0
-254 -121 -212 -51 -177 0
-254 -121 -212 -58 -177 0
-254 -121 -212 -86 -198 0
-254 -121 -212 -93 -198 0
-254 -121 -212 -100 -198 0
-121 -212 254 2 156 9 156 16 156 44 177 51 177 58 177 86 198 93 198 100 198 0
-254 -121 -219 -2 -163 0
-254 -121 -219 -9 -163 0
-254 -121 -219 -16 -163 0
-254 -121 -219 -44 -184 0
-254 -121 -219 -51 -184 0
-254 -121 -219 -58 -184 0
-254 -121 -219 -86 -205 0
-254 -121 -219 -93 -205 0
-254 -121 -219 -100 -205 0
-121 -219 254 2 163 9 163 16 163 44 184 51 184 58 184 86 205 93 205 100 205 0
-254 -128 -212 -9 -156 0
-254 -128 -212 -16 -156 0
-254 -128 -212 -23 -156 0
-254 -128 -212 -51 -177 0
-254 -128 -212 -58 -177 0
-254 -128 -212 -65 -177 0
-254 -128 -212 -86 -198 0
-254 -128 -212 -93 -198 0
-254 -128 -212 -100 -198 0
-254 -128 -212 -107 -198 0
-128 -212 254 9 156 16 156 23 156 51 177 58 177 65 177 86 198 93 198 100 198 107 198 0
-254 -128 -219 -9 -163 0
-254 -128 -219 -16 -163 0
-254 -128 -219 -23 -163 0
-254 -128 -219 -51 -184 0
-254 -128 -219 -58 -184 0
-254 -128 -219 -65 -184 0
-254 -128 -219 -86 -205 0
-254 -128 -219 -93 -205 0
-254 -128 -219 -100 -205 0
-254 -128 -219 -107 -205 0
-128 -219 254 9 163 16 163 23 163 51 184 58 184 65 184 86 205 93 205 100 205 107 205 0
-254 -135 -212 -16 -156 0
-254 -135 -212 -23 -156 0
-254 -135 -212 -30 -156 0
-254 -135 -212 -58 -177 0
-254 -135 -212 -65 -177 0
-254 -135 -212 -72 -177 0
-254 -135 -212 -93 -198 0
-254 -135 -212 -100 -198 0
-254 -135 -212 -107 -198 0
-254 -135 -212 -114 -198 0
-135 -212 254 16 156 23 156 30 156 58 177 65 177 72 177 93 198 100 198 107 198 114 198 0
-254 -135 -219 -16 -163 0
-254 -135 -219 -23 -163 0
-254 -135 -219 -30 -163 0
-254 -135 -219 -58 -184 0
-254 -135 -219 -65 -184 0
-254 -135 -219 -72 -184 0
-254 -135 -219 -93 -205 0
-254 -135 -219 -100 -205 0
-254 -135 -219 -107 -205 0
-254 -135 -219 -114 -205 0
-135 -219 254 16 163 23 163 30 163 58 184 65 184 72 184 93 205 100 205 107 205 114 205 0
-254 -142 -212 -23 -156 0
-254 -142 -212 -30 -156 0
-254 -142 -212 -37 -156 0
-254 -142 -212 -65 -177 0
-254 -142 -212 -72 -177 0
-254 -142 -212 -79 -177 0
-254 -142 -212 -100 -198 0
-254 -142 -212 -107 -198 0
-254 -142 -212 -114 -198 0
-142 -212 254 23 156 30 156 37 156 65 177 72 177 79 177 100 198 107 198 114 198 0
-254 -142 -219 -23 -163 0
-254 -142 -219 -30 -163 0
-254 -142 -219 -37 -163 0
-254 -142 -219 -65 -184 0
-254 -142 -219 -72 -184 0
-254 -142 -219 -79 -184 0
-254 -142 -219 -100 -205 0
-254 -142 -219 -107 -205 0
-254 -142 -219 -114 -205 0
-142 -219 254 23 163 30 163 37 163 65 184 72 184 79 184 100 205 107 205 114 205 0
-234 -3 -150 -45 -178 0
-234 -3 -150 -87 -199 0
-234 -3 -150 -122 -220 0
-3 -150 234 45 178 87 199 122 220 0
-234 -3 -157 -45 -185 0
-234 -3 -157 -87 -206 0
-234 -3 -157 -122 -227 0
-3 -157 234 45 185 87 206 122 227 0
-234 -10 -150 -52 -178 0
-234 -10 -150 -87 -199 0
-234 -10 -150 -94 -199 0
-234 -10 -150 -122 -220 0
-234 -10 -150 -129 -220 0
-10 -150 234 52 178 87 199 94 199 122 220 129 220 0
-234 -10 -157 -52 -185 0
-234 -10 -157 -87 -206 0
-234 -10 -157 -94 -206 0
-234 -10 -157 -122 -227 0
-234 -10 -157 -129 -227 0
-10 -157 234 52 185 87 206 94 206 122 227 129 227 0
-234 -17 -150 -59 -178 0
-234 -17 -150 -94 -199 0
-234 -17 -150 -101 -199 0
-234 -17 -150 -122 -220 0
-234 -17 -150 -129 -220 0
-234 -17 -150 -136 -220 0
-17 -150 234 59 178 94 199 101 199 122 220 129 220 136 220 0
-234 -17 -157 -59 -185 0
-234 -17 -157 -94 -206 0
-234 -17 -157 -101 -206 0
-234 -17 -157 -122 -227 0
-234 -17 -157 -129 -227 0
-234 -17 -157 -136 -227 0
-17 -157 234 59 185 94 206 101 206 122 227 129 227 136 227 0
-234 -24 -150 -66 -178 0
-234 -24 -150 -101 -199 0
-234 -24 -150 -108 -199 0
-234 -24 -150 -129 -220 0
-234 -24 -150 -136 -220 0
-234 -24 -150 -143 -220 0
-24 -150 234 66 178 101 199 108 199 129 220 136 220 143 220 0
-234 -24 -157 -66 -185 0
-234 -24 -157 -101 -206 0
-234 -24 -157 -108 -206 0
-234 -24 -157 -129 -227 0
-234 -24 -157 -136 -227 0
-234 -24 -157 -143 -227 0
-24 -157 234 66 185 101 206 108 206 129 227 136 227 143 227 0
-234 -31 -150 -73 -178 0
-234 -31 -150 -108 -199 0
-234 -31 -150 -115 -199 0
-234 -31 -150 -136 -220 0
-234 -31 -150 -143 -220 0
-31 -150 234 73 178 108 199 115 199 136 220 143 220 0
-234 -31 -157 -73 -185 0
-234 -31 -157 -108 -206 0
-234 -31 -157 -115 -206 0
-234 -31 -157 -136 -227 0
-234 -31 -157 -143 -227 0
-31 -157 234 73 185 108 206 115 206 136 227 143 227 0
-234 -38 -150 -80 -178 0
-234 -38 -150 -115 -199 0
-234 -38 -150 -143 -220 0
-38 -150 234 80 178 115 199 143 220 0
-234 -38 -157 -80 -185 0
-234 -38 -157 -115 -206 0
-234 -38 -157 -143 -227 0
-38 -157 234 80 185 115 206 143 227 0
-241 -45 -171 -3 -157 0
-241 -45 -171 -87 -199 0
-241 -45 -171 -122 -220 0
-45 -171 241 3 157 87 199 122 220 0
-241 -45 -178 -3 -164 0
-241 -45 -178 -87 -206 0
-241 -45 -178 -122 -227 0
-45 -178 241 3 164 87 206 122 227 0
-241 -52 -171 -10 -157 0
-241 -52 -171 -87 -199 0
-241 -52 -171 -94 -199 0
-241 -52 -171 -122 -220 0
-241 -52 -171 -129 -220 0
-52 -171 241 10 157 87 199 94 199 122 220 129 220 0
-241 -52 -178 -10 -164 0
-241 -52 -178 -87 -206 0
-241 -52 -178 -94 -206 0
-241 -52 -178 -122 -227 0
-241 -52 -178 -129 -227 0
-52 -178 241 10 164 87 206 94 206 122 227 129 227 0
-241 -59 -171 -17 -157 0
-241 -59 -171 -94 -199 0
-241 -59 -171 -101 -199 0
-241 -59 -171 -122 -220 0
-241 -59 -171 -129 -220 0
-241 -59 -171 -136 -220 0
-59 -171 241 17 157 94 199 101 199 122 220 129 220 136 220 0
-241 -59 -178 -17 -164 0
-241 -59 -178 -94 -206 0
-241 -59 -178 -101 -206 0
-241 -59 -178 -122 -227 0
-241 -59 -178 -129 -227 0
-241 -59 -178 -136 -227 0
-59 -178 241 17 164 94 206 101 206 122 227 129 227 136 227 0
-241 -66 -171 -24 -157 0
-241 -66 -171 -101 -199 0
-241 -66 -171 -108 -199 0
-241 -66 -171 -129 -220 0
-241 -66 -171 -136 -220 0
-241 -66 -171 -143 -220 0
-66 -171 241 24 157 101 199 108 199 129 220 136 220 143 220 0
-241 -66 -178 -24 -164 0
-241 -66 -178 -101 -206 0
-241 -66 -178 -108 -206 0
-241 -66 -178 -129 -227 0
-241 -66 -178 -136 -227 0
-241 -66 -178 -143 -227 0
-66 -178 241 24 164 101 206 108 206 129 227 136 227 143 227 0
-241 -73 -171 -31 -157 0
-241 -73 -171 -108 -199 0
-241 -73 -171 -115 -199 0
-241 -73 -171 -136 -220 0
-241 -73 -171 -143 -220 0
-73 -171 241 31 157 108 199 115 199 136 220 143 220 0
-241 -73 -178 -31 -164 0
-241 -73 -178 -108 -206 0
-241 -73 -178 -115 -206 0
-241 -73 -178 -136 -227 0
-241 -73 -178 -143 -227 0
-73 -178 241 31 164 108 206 115 206 136 227 143 227 0
-241 -80 -171 -38 -157 0
-241 -80 -171 -115 -199 0
-241 -80 -171 -143 -220 0
-80 -171 241 38 157 115 199 143 220 0
-241 -80 -178 -38 -164 0
-241 -80 -178 -115 -206 0
-241 -80 -178 -143 -227 0
-80 -178 241 38 164 115 206 143 227 0
-248 -87 -192 -3 -157 0
-248 -87 -192 -10 -157 0
-248 -87 -192 -45 -178 0
-248 -87 -192 -52 -178 0
-248 -87 -192 -122 -220 0
-248 -87 -192 -129 -220 0
-87 -192 248 3 157 10 157 45 178 52 178 122 220 129 220 0
-248 -87 -199 -3 -164 0
-248 -87 -199 -10 -164 0
-248 -87 -199 -45 -185 0
-248 -87 -199 -52 -185 0
-248 -87 -199 -122 -227 0
-248 -87 -199 -129 -227 0
-87 -199 248 3 164 10 164 45 185 52 185 122 227 129 227 0
-248 -94 -192 -10 -157 0
-248 -94 -192 -17 -157 0
-248 -94 -192 -52 -178 0
-248 -94 -192 -59 -178 0
-248 -94 -192 -122 -220 0
-248 -94 -192 -129 -220 0
-248 -94 -192 -136 -220 0
-94 -192 248 10 157 17 157 52 178 59 178 122 220 129 220 136 220 0
-248 -94 -199 -10 -164 0
-248 -94 -199 -17 -164 0
-248 -94 -199 -52 -185 0
-248 -94 -199 -59 -185 0
-248 -94 -199 -122 -227 0
-248 -94 -199 -129 -227 0
-248 -94 -199 -136 -227 0
-94 -199 248 10 164 17 164 52 185 59 185 122 227 129 227 136 227 0
-248 -101 -192 -17 -157 0
-248 -101 -192 -24 -157 0
-248 -101 -192 -59 -178 0
-248 -101 -192 -66 -178 0
-248 -101 -192 -122 -220 0
-248 -101 -192 -129 -220 0
-248 -101 -192 -136 -220 0
-248 -101 -192 -143 -220 0
-101 -192 248 17 157 24 157 59 178 66 178 122 220 129 220 136 220 143 220 0
-248 -101 -199 -17 -164 0
-248 -101 -199 -24 -164 0
-248 -101 -199 -59 -185 0
-248 -101 -199 -66 -185 0
-248 -101 -199 -122 -227 0
-248 -101 -199 -129 -227 0
-248 -101 -199 -136 -227 0
-248 -101 -199 -143 -227 0
-101 -199 248 17 164 24 164 59 185 66 185 122 227 129 227 136 227 143 227 0
-248 -108 -192 -24 -157 0
-248 -108 -192 -31 -157 0
-248 -108 -192 -66 -178 0
-248 -108 -192 -73 -178 0
-248 -108 -192 -129 -220 0
-248 -108 -192 -136 -220 0
-248 -108 -192 -143 -220 0
-108 -192 248 24 157 31 157 66 178 73 178 129 220 136 220 143 220 0
-248 -108 -199 -24 -164 0
-248 -108 -199 -31 -164 0
-248 -108 -199 -66 -185 0
-248 -108 -199 -73 -185 0
-248 -108 -199 -129 -227 0
-248 -108 -199 -136 -227 0
-248 -108 -199 -143 -227 0
-108 -199 248 24 164 31 164 66 185 73 185 129 227 136 227 143 227 0
-248 -115 -192 -31 -157 0
-248 -115 -192 -38 -157 0
-248 -115 -192 -73 -178 0
-248 -115 -192 -80 -178 0
-248 -115 -192 -136 -220 0
-248 -115 -192 -143 -220 0
-115 -192 248 31 157 38 157 73 178 80 178 136 220 143 220 0
-248 -115 -199 -31 -164 0
-248 -115 -199 -38 -164 0
-248 -115 -199 -73 -185 0
-248 -115 -199 -80 -185 0
-248 -115 -199 -136 -227 0
-248 -115 -199 -143 -227 0
-115 -199 248 31 164 38 164 73 185 80 185 136 227 143 227 0
-255 -122 -213 -3 -157 0
-255 -122 -213 -10 -157 0
-255 -122 -213 -17 -157 0
-255 -122 -213 -45 -178 0
-255 -122 -213 -52 -178 0
-255 -122 -213 -59 -178 0
-255 -122 -213 -87 -199 0
-255 -122 -213 -94 -199 0
-255 -122 -213 -101 -199 0
-122 -213 255 3 157 10 157 17 157 45 178 52 178 59 178 87 199 94 199 101 199 0
-255 -122 -220 -3 -164 0
-255 -122 -220 -10 -164 0
-255 -122 -220 -17 -164 0
-255 -122 -220 -45 -185 0
-255 -122 -220 -52 -185 0
-255 -122 -220 -59 -185 0
-255 -122 -220 -87 -206 0
-255 -122 -220 -94 -206 0
-255 -122 -220 -101 -206 0
-122 -220 255 3 164 10 164 17 164 45 185 52 185 59 185 87 206 94 206 101 206 0
-255 -129 -213 -10 -157 0
-255 -129 -213 -17 -157 0
-255 -129 -213 -24 -157 0
-255 -129 -213 -52 -178 0
-255 -129 -213 -59 -178 0
-255 -129 -213 -66 -178 0
-255 -129 -213 -87 -199 0
-255 -129 -213 -94 -199 0
-255 -129 -213 -101 -199 0
-255 -129 -213 -108 -199 0
-129 -213 255 10 157 17 157 24 157 52 178 59 178 66 178 87 199 94 199 101 199 108 199 0
-255 -129 -220 -10 -164 0
-255 -129 -220 -17 -164 0
-255 -129 -220 -24 -164 0
-255 -129 -220 -52 -185 0
-255 -129 -220 -59 -185 0
-255 -129 -220 -66 -185 0
-255 -129 -220 -87 -206 0
-255 -129 -220 -94 -206 0
-255 -129 -220 -101 -206 0
-255 -129 -220 -108 -206 0
-129 -220 255 10 164 17 164 24 164 52 185 59 185 66 185 87 206 94 206 101 206 108 206 0
-255 -136 -213 -17 -157 0
-255 -136 -213 -24 -157 0
-255 -136 -213 -31 -157 0
-255 -136 -213 -59 -178 0
-255 -136 -213 -66 -178 0
-255 -136 -213 -73 -178 0
-255 -136 -213 -94 -199 0
-255 -136 -213 -101 -199 0
-255 -136 -213 -108 -199 0
-255 -136 -213 -115 -199 0
-136 -213 255 17 157 24 157 31 157 59 178 66 178 73 178 94 199 101 199 108 199 115 199 0
-255 -136 -220 -17 -164 0
-255 -136 -220 -24 -164 0
-255 -136 -220 -31 -164 0
-255 -136 -220 -59 -185 0
-255 -136 -220 -66 -185 0
-255 -136 -220 -73 -185 0
-255 -136 -220 -94 -206 0
-255 -136 -220 -101 -206 0
-255 -136 -220 -108 -206 0
-255 -136 -220 -115 -206 0
-136 -220 255 17 164 24 164 31 164 59 185 66 185 73 185 94 206 101 206 108 206 115 206 0
-255 -143 -213 -24 -157 0
-255 -143 -213 -31 -157 0
-255 -143 -213 -38 -157 0
-255 -143 -213 -66 -178 0
-255 -143 -213 -73 -178 0
-255 -143 -213 -80 -178 0
-255 -143 -213 -101 -199 0
-255 -143 -213 -108 -199 0
-255 -143 -213 -115 -199 0
-143 -213 255 24 157 31 157 38 157 66 178 73 178 80 178 101 199 108 199 115 199 0
-255 -143 -220 -24 -164 0
-255 -143 -220 -31 -164 0
-255 -143 -220 -38 -164 0
-255 -143 -220 -66 -185 0
-255 -143 -220 -73 -185 0
-255 -143 -220 -80 -185 0
-255 -143 -220 -101 -206 0
-255 -143 -220 -108 -206 0
-255 -143 -220 -115 -206 0
-143 -220 255 24 164 31 164 38 164 66 185 73 185 80 185 101 206 108 206 115 206 0
-235 -4 -151 -46 -179 0
-235 -4 -151 -88 -200 0
-235 -4 -151 -123 -221 0
-4 -151 235 46 179 88 200 123 221 0
-235 -4 -158 -46 -186 0
-235 -4 -158 -88 -207 0
-235 -4 -158 -123 -228 0
-4 -158 235 46 186 88 207 123 228 0
-235 -11 -151 -53 -179 0
-235 -11 -151 -88 -200 0
-235 -11 -151 -95 -200 0
-235 -11 -151 -123 -221 0
-235 -11 -151 -130 -221 0
-11 -151 235 53 179 88 200 95 200 123 221 130 221 0
-235 -11 -158 -53 -186 0
-235 -11 -158 -88 -207 0
-235 -11 -158 -95 -207 0
-235 -11 -158 -123 -228 0
-235 -11 -158 -130 -228 0
-11 -158 235 53 186 88 207 95 207 123 228 130 228 0
-235 -18 -151 -60 -179 0
-235 -18 -151 -95 -200 0
-235 -18 -151 -102 -200 0
-235 -18 -151 -123 -221 0
-235 -18 -151 -130 -221 0
-235 -18 -151 -137 -221 0
-18 -151 235 60 179 95 200 102 200 123 221 130 221 137 221 0
-235 -18 -158 -60 -186 0
-235 -18 -158 -95 -207 0
-235 -18 -158 -102 -207 0
-235 -18 -158 -123 -228 0
-235 -18 -158 -130 -228 0
-235 -18 -158 -137 -228 0
-18 -158 235 60 186 95 207 102 207 123 228 130 228 137 228 0
-235 -25 -151 -67 -179 0
-235 -25 -151 -102 -200 0
-235 -25 -151 -109 -200 0
-235 -25 -151 -130 -221 0
-235 -25 -151 -137 -221 0
-235 -25 -151 -144 -221 0
-25 -151 235 67 179 102 200 109 200 130 221 137 221 144 221 0
-235 -25 -158 -67 -186 0
-235 -25 -158 -102 -207 0
-235 -25 -158 -109 -207 0
-235 -25 -158 -130 -228 0
-235 -25 -158 -137 -228 0
-235 -25 -158 -144 -228 0
-25 -158 235 67 186 102 207 109 207 130 228 137 228 144 228 0
-235 -32 -151 -74 -179 0
-235 -32 -151 -109 -200 0
-235 -32 -151 -116 -200 0
-235 -32 -151 -137 -221 0
-235 -32 -151 -144 -221 0
-32 -151 235 74 179 109 200 116 200 137 221 144 221 0
-235 -32 -158 -74 -186 0
-235 -32 -158 -109 -207 0
-235 -32 -158 -116 -207 0
-235 -32 -158 -137 -228 0
-235 -32 -158 -144 -228 0
-32 -158 235 74 186 109 207 116 207 137 228 144 228 0
-235 -39 -151 -81 -179 0
-235 -39 -151 -116 -200 0
-235 -39 -151 -144 -221 0
-39 -151 235 81 179 116 200 144 221 0
-235 -39 -158 -81 -186 0
-235 -39 -158 -116 -207 0
-235 -39 -158 -144 -228 0
-39 -158 235 81 186 116 207 144 228 0
-242 -46 -172 -4 -158 0
-242 -46 -172 -88 -200 0
-242 -46 -172 -123 -221 0
-46 -172 242 4 158 88 200 123 221 0
-242 -46 -179 -4 -165 0
-242 -46 -179 -88 -207 0
-242 -46 -179 -123 -228 0
-46 -179 242 4 165 88 207 123 228 0
-242 -53 -172 -11 -158 0
-242 -53 -172 -88 -200 0
-242 -53 -172 -95 -200 0
-242 -53 -172 -123 -221 0
-242 -53 -172 -130 -221 0
-53 -172 242 11 158 88 200 95 200 123 221 130 221 0
-242 -53 -179 -11 -165 0
-242 -53 -179 -88 -207 0
-242 -53 -179 -95 -207 0
-242 -53 -179 -123 -228 0
-242 -53 -179 -130 -228 0
-53 -179 242 11 165 88 207 95 207 123 228 130 228 0
-242 -60 -172 -18 -158 0
-242 -60 -172 -95 -200 0
-242 -60 -172 -102 -200 0
-242 -60 -172 -123 -221 0
-242 -60 -172 -130 -221 0
-242 -60 -172 -137 -221 0
-60 -172 242 18 158 95 200 102 200 123 221 130 221 137 221 0
-242 -60 -179 -18 -165 0
-242 -60 -179 -95 -207 0
-242 -60 -179 -102 -207 0
-242 -60 -179 -123 -228 0
-242 -60 -179 -130 -228 0
-242 -60 -179 -137 -228 0
-60 -179 242 18 165 95 207 102 207 123 228 130 228 137 228 0
-242 -67 -172 -25 -158 0
-242 -67 -172 -102 -200 0
-242 -67 -172 -109 -200 0
-242 -67 -172 -130 -221 0
-242 -67 -172 -137 -221 0
-242 -67 -172 -144 -221 0
-67 -172 242 25 158 102 200 109 200 130 221 137 221 144 221 0
-242 -67 -179 -25 -165 0
-242 -67 -179 -102 -207 0
-242 -67 -179 -109 -207 0
-242 -67 -179 -130 -228 0
-242 -67 -179 -137 -228 0
-242 -67 -179 -144 -228 0
-67 -179 242 25 165 102 207 109 207 130 228 137 228 144 228 0
-242 -74 -172 -32 -158 0
-242 -74 -172 -109 -200 0
-242 -74 -172 -116 -200 0
-242 -74 -172 -137 -221 0
-242 -74 -172 -144 -221 0
-74 -172 242 32 158 109 200 116 200 137 221 144 221 0
-242 -74 -179 -32 -165 0
-242 -74 -179 -109 -207 0
-242 -74 -179 -116 -207 0
-242 -74 -179 -137 -228 0
-242 -74 -179 -144 -228 0
-74 -179 242 32 165 109 207 116 207 137 228 144 228 0
-242 -81 -172 -39 -158 0
-242 -81 -172 -116 -200 0
-242 -81 -172 -144 -221 0
-81 -172 242 39 158 116 200 144 221 0
-242 -81 -179 -39 -165 0
-242 -81 -179 -116 -207 0
-242 -81 -179 -144 -228 0
-81 -179 242 39 165 116 207 144 228 0
-249 -88 -193 -4 -158 0
-249 -88 -193 -11 -158 0
-249 -88 -193 -46 -179 0
-249 -88 -193 -53 -179 0
-249 -88 -193 -123 -221 0
-249 -88 -193 -130 -221 0
-88 -193 249 4 158 11 158 46 179 53 179 123 221 130 221 0
-249 -88 -200 -4 -165 0
-249 -88 -200 -11 -165 0
-249 -88 -200 -46 -186 0
-249 -88 -200 -53 -186 0
-249 -88 -200 -123 -228 0
-249 -88 -200 -130 -228 0
-88 -200 249 4 165 11 165 46 186 53 186 123 228 130 228 0
-249 -95 -193 -11 -158 0
-249 -95 -193 -18 -158 0
-249 -95 -193 -53 -179 0
-249 -95 -193 -60 -179 0
-249 -95 -193 -123 -221 0
-249 -95 -193 -130 -221 0
-249 -95 -193 -137 -221 0
-95 -193 249 11 158 18 158 53 179 60 179 123 221 130 221 137 221 0
-249 -95 -200 -11 -165 0
-249 -95 -200 -18 -165 0
-249 -95 -200 -53 -186 0
-249 -95 -200 -60 -186 0
-249 -95 -200 -123 -228 0
-249 -95 -200 -130 -228 0
-249 -95 -200 -137 -228 0
-95 -200 249 11 165 18 165 53 186 60 186 123 228 130 228 137 228 0
-249 -102 -193 -18 -158 0
-249 -102 -193 -25 -158 0
-249 -102 -193 -60 -179 0
-249 -102 -193 -67 -179 0
-249 -102 -193 -123 -221 0
-249 -102 -193 -130 -221 0
-249 -102 -193 -137 -221 0
-249 -102 -193 -144 -221 0
-102 -193 249 18 158 25 158 60 179 67 179 123 221 130 221 137 221 144 221 0
-249 -102 -200 -18 -165 0
-249 -102 -200 -25 -165 0
-249 -102 -200 -60 -186 0
-249 -102 -200 -67 -186 0
-249 -102 -200 -123 -228 0
-249 -102 -200 -130 -228 0
-249 -102 -200 -137 -228 0
-249 -102 -200 -144 -228 0
-102 -200 249 18 165 25 165 60 186 67 186 123 228 130 228 137 228 144 228 0
-249 -109 -193 -25 -158 0
-249 -109 -193 -32 -158 0
-249 -109 -193 -67 -179 0
-249 -109 -193 -74 -179 0
-249 -109 -193 -130 -221 0
-249 -109 -193 -137 -221 0
-249 -109 -193 -144 -221 0
-109 -193 249 25 158 32 158 67 179 74 179 130 221 137 221 144 221 0
-249 -109 -200 -25 -165 0
-249 -109 -200 -32 -165 0
-249 -109 -200 -67 -186 0
-249 -109 -200 -74 -186 0
-249 -109 -200 -130 -228 0
-249 -109 -200 -137 -228 0
-249 -109 -200 -144 -228 0
-109 -200 249 25 165 32 165 67 186 74 186 130 228 137 228 144 228 0
-249 -116 -193 -32 -158 0
-249 -116 -193 -39 -158 0
-249 -116 -193 -74 -179 0
-249 -116 -193 -81 -179 0
-249 -116 -193 -137 -221 0
-249 -116 -193 -144 -221 0
-116 -193 249 32 158 39 158 74 179 81 179 137 221 144 221 0
-249 -116 -200 -32 -165 0
-249 -116 -200 -39 -165 0
-249 -116 -200 -74 -186 0
-249 -116 -200 -81 -186 0
-249 -116 -200 -137 -228 0
-249 -116 -200 -144 -228 0
-116 -200 249 32 165 39 165 74 186 81 186 137 228 144 228 0
-256 -123 -214 -4 -158 0
-256 -123 -214 -11 -158 0
-256 -123 -214 -18 -158 0
-256 -123 -214 -46 -179 0
-256 -123 -214 -53 -179 0
-256 -123 -214 -60 -179 0
-256 -123 -214 -88 -200 0
-256 -123 -214 -95 -200 0
-256 -123 -214 -102 -200 0
-123 -214 256 4 158 11 158 18 158 46 179 53 179 60 179 88 200 95 200 102 200 0
-256 -123 -221 -4 -165 0
-256 -123 -221 -11 -165 0
-256 -123 -221 -18 -165 0
-256 -123 -221 -46 -186 0
-256 -123 -221 -53 -186 0
-256 -123 -221 -60 -186 0
-256 -123 -221 -88 -207 0
-256 -123 -221 -95 -207 0
-256 -123 -221 -102 -207 0
-123 -221 256 4 165 11 165 18 165 46 186 53 186 60 186 88 207 95 207 102 207 0
-256 -130 -214 -11 -158 0
-256 -130 -214 -18 -158 0
-256 -130 -214 -25 -158 0
-256 -130 -214 -53 -179 0
-256 -130 -214 -60 -179 0
-256 -130 -214 -67 -179 0
-256 -130 -214 -88 -200 0
-256 -130 -214 -95 -200 0
-256 -130 -214 -102 -200 0
-256 -130 -214 -109 -200 0
-130 -214 256 11 158 18 158 25 158 53 179 60 179 67 179 88 200 95 200 102 200 109 200 0
-256 -130 -221 -11 -165 0
-256 -130 -221 -18 -165 0
-256 -130 -221 -25 -165 0
-256 -130 -221 -53 -186 0
-256 -130 -221 -60 -186 0
-256 -130 -221 -67 -186 0
-256 -130 -221 -88 -207 0
-256 -130 -221 -95 -207 0
-256 -130 -221 -102 -207 0
-256 -130 -221 -109 -207 0
-130 -221 256 11 165 18 165 25 165 53 186 60 186 67 186 88 207 95 207 102 207 109 207 0
-256 -137 -214 -18 -158 0
-256 -137 -214 -25 -158 0
-256 -137 -214 -32 -158 0
-256 -137 -214 -60 -179 0
-256 -137 -214 -67 -179 0
-256 -137 -214 -74 -179 0
-256 -137 -214 -95 -200 0
-256 -137 -214 -102 -200 0
-256 -137 -214 -109 -200 0
-256 -137 -214 -116 -200 0
-137 -214 256 18 158 25 158 32 158 60 179 67 179 74 179 95 200 102 200 109 200 116 200 0
-256 -137 -221 -18 -165 0
-256 -137 -221 -25 -165 0
-256 -137 -221 -32 -165 0
-256 -137 -221 -60 -186 0
-256 -137 -221 -67 -186 0
-256 -137 -221 -74 -186 0
-256 -137 -221 -95 -207 0
-256 -137 -221 -102 -207 0
-256 -137 -221 -109 -207 0
-256 -137 -221 -116 -207 0
-137 -221 256 18 165 25 165 32 165 60 186 67 186 74 186 95 207 102 207 109 207 116 207 0
-256 -144 -214 -25 -158 0
-256 -144 -214 -32 -158 0
-256 -144 -214 -39 -158 0
-256 -144 -214 -67 -179 0
-256 -144 -214 -74 -179 0
-256 -144 -214 -81 -179 0
-256 -144 -214 -102 -200 0
-256 -144 -214 -109 -200 0
-256 -144 -214 -116 -200 0
-144 -214 256 25 158 32 158 39 158 67 179 74 179 81 179 102 200 109 200 116 200 0
-256 -144 -221 -25 -165 0
-256 -144 -221 -32 -165 0
-256 -144 -221 -39 -165 0
-256 -144 -221 -67 -186 0
-256 -144 -221 -74 -186 0
-256 -144 -221 -81 -186 0
-256 -144 -221 -102 -207 0
-256 -144 -221 -109 -207 0
-256 -144 -221 -116 -207 0
-144 -221 256 25 165 32 165 39 165 67 186 74 186 81 186 102 207 109 207 116 207 0
-236 -5 -152 -47 -180 0
-236 -5 -152 -89 -201 0
-236 -5 -152 -124 -222 0
-5 -152 236 47 180 89 201 124 222 0
-236 -5 -159 -47 -187 0
-236 -5 -159 -89 -208 0
-236 -5 -159 -124 -229 0
-5 -159 236 47 187 89 208 124 229 0
-236 -12 -152 -54 -180 0
-236 -12 -152 -89 -201 0
-236 -12 -152 -96 -201 0
-236 -12 -152 -124 -222 0
-236 -12 -152 -131 -222 0
-12 -152 236 54 180 89 201 96 201 124 222 131 222 0
-236 -12 -159 -54 -187 0
-236 -12 -159 -89 -208 0
-236 -12 -159 -96 -208 0
-236 -12 -159 -124 -229 0
-236 -12 -159 -131 -229 0
-12 -159 236 54 187 89 208 96 208 124 229 131 229 0
-236 -19 -152 -61 -180 0
-236 -19 -152 -96 -201 0
-236 -19 -152 -103 -201 0
-236 -19 -152 -124 -222 0
-236 -19 -152 -131 -222 0
-236 -19 -152 -138 -222 0
-19 -152 236 61 180 96 201 103 201 124 222 131 222 138 222 0
-236 -19 -159 -61 -187 0
-236 -19 -159 -96 -208 0
-236 -19 -159 -103 -208 0
-236 -19 -159 -124 -229 0
-236 -19 -159 -131 -229 0
-236 -19 -159 -138 -229 0
-19 -159 236 61 187 96 208 103 208 124 229 131 229 138 229 0
-236 -26 -152 -68 -180 0
-236 -26 -152 -103 -201 0
-236 -26 -152 -110 -201 0
-236 -26 -152 -131 -222 0
-236 -26 -152 -138 -222 0
-236 -26 -152 -145 -222 0
-26 -152 236 68 180 103 201 110 201 131 222 138 222 145 222 0
-236 -26 -159 -68 -187 0
-236 -26 -159 -103 -208 0
-236 -26 -159 -110 -208 0
-236 -26 -159 -131 -229 0
-236 -26 -159 -138 -229 0
-236 -26 -159 -145 -229 0
-26 -159 236 68 187 103 208 110 208 131 229 138 229 145 229 0
-236 -33 -152 -75 -180 0
-236 -33 -152 -110 -201 0
-236 -33 -152 -117 -201 0
-236 -33 -152 -138 -222 0
-236 -33 -152 -145 -222 0
-33 -152 236 75 180 110 201 117 201 138 222 145 222 0
-236 -33 -159 -75 -187 0
-236 -33 -159 -110 -208 0
-236 -33 -159 -117 -208 0
-236 -33 -159 -138 -229 0
-236 -33 -159 -145 -229 0
-33 -159 236 75 187 110 208 117 208 138 229 145 229 0
-236 -40 -152 -82 -180 0
-236 -40 -152 -117 -201 0
-236 -40 -152 -145 -222 0
-40 -152 236 82 180 117 201 145 222 0
-236 -40 -159 -82 -187 0
-236 -40 -159 -117 -208 0
-236 -40 -159 -145 -229 0
-40 -159 236 82 187 117 208 145 229 0
-243 -47 -173 -5 -159 0
-243 -47 -173 -89 -201 0
-243 -47 -173 -124 -222 0
-47 -173 243 5 159 89 201 124 222 0
-243 -47 -180 -5 -166 0
-243 -47 -180 -89 -208 0
-243 -47 -180 -124 -229 0
-47 -180 243 5 166 89 208 124 229 0
-243 -54 -173 -12 -159 0
-243 -54 -173 -89 -201 0
-243 -54 -173 -96 -201 0
-243 -54 -173 -124 -222 0
-243 -54 -173 -131 -222 0
-54 -173 243 12 159 89 201 96 201 124 222 131 222 0
-243 -54 -180 -12 -166 0
-243 -54 -180 -89 -208 0
-243 -54 -180 -96 -208 0
-243 -54 -180 -124 -229 0
-243 -54 -180 -131 -229 0
-54 -180 243 12 166 89 208 96 208 124 229 131 229 0
-243 -61 -173 -19 -159 0
-243 -61 -173 -96 -201 0
-243 -61 -173 -103 -201 0
-243 -61 -173 -124 -222 0
-243 -61 -173 -131 -222 0
-243 -61 -173 -138 -222 0
-61 -173 243 19 159 96 201 103 201 124 222 131 222 138 222 0
-243 -61 -180 -19 -166 0
-243 -61 -180 -96 -208 0
-243 -61 -180 -103 -208 0
-243 -61 -180 -124 -229 0
-243 -61 -180 -131 -229 0
-243 -61 -180 -138 -229 0
-61 -180 243 19 166 96 208 103 208 124 229 131 229 138 229 0
-243 -68 -173 -26 -159 0
-243 -68 -173 -103 -201 0
-243 -68 -173 -110 -201 0
-243 -68 -173 -131 -222 0
-243 -68 -173 -138 -222 0
-243 -68 -173 -145 -222 0
-68 -173 243 26 159 103 201 110 201 131 222 138 222 145 222 0
-243 -68 -180 -26 -166 0
-243 -68 -180 -103 -208 0
-243 -68 -180 -110 -208 0
-243 -68 -180 -131 -229 0
-243 -68 -180 -138 -229 0
-243 -68 -180 -145 -229 0
-68 -180 243 26 166 103 208 110 208 131 229 138 229 145 229 0
-243 -75 -173 -33 -159 0
-243 -75 -173 -110 -201 0
-243 -75 -173 -117 -201 0
-243 -75 -173 -138 -222 0
-243 -75 -173 -145 -222 0
-75 -173 243 33 159 110 201 117 201 138 222 145 222 0
-243 -75 -180 -33 -166 0
-243 -75 -180 -110 -208 0
-243 -75 -180 -117 -208 0
-243 -75 -180 -138 -229 0
-243 -75 -180 -145 -229 0
-75 -180 243 33 166 110 208 117 208 138 229 145 229 0
-243 -82 -173 -40 -159 0
-243 -82 -173 -117 -201 0
-243 -82 -173 -145 -222 0
-82 -173 243 40 159 117 201 145 222 0
-243 -82 -180 -40 -166 0
-243 -82 -180 -117 -208 0
-243 -82 -180 -145 -229 0
-82 -180 243 40 166 117 208 145 229 0
-250 -89 -194 -5 -159 0
-250 -89 -194 -12 -159 0
-250 -89 -194 -47 -180 0
-250 -89 -194 -54 -180 0
-250 -89 -194 -124 -222 0
-250 -89 -194 -131 -222 0
-89 -194 250 5 159 12 159 47 180 54 180 124 222 131 222 0
-250 -89 -201 -5 -166 0
-250 -89 -201 -12 -166 0
-250 -89 -201 -47 -187 0
-250 -89 -201 -54 -187 0
-250 -89 -201 -124 -229 0
-250 -89 -201 -131 -229 0
-89 -201 250 5 166 12 166 47 187 54 187 124 229 131 229 0
-250 -96 -194 -12 -159 0
-250 -96 -194 -19 -159 0
-250 -96 -194 -54 -180 0
-250 -96 -194 -61 -180 0
-250 -96 -194 -124 -222 0
-250 -96 -194 -131 -222 0
-250 -96 -194 -138 -222 0
-96 -194 250 12 159 19 159 54 180 61 180 124 222 131 222 138 222 0
-250 -96 -201 -12 -166 0
-250 -96 -201 -19 -166 0
-250 -96 -201 -54 -187 0
-250 -96 -201 -61 -187 0
-250 -96 -201 -124 -229 0
-250 -96 -201 -131 -229 0
-250 -96 -201 -138 -229 0
-96 -201 250 12 166 19 166 54 187 61 187 124 229 131 229 138 229 0
-250 -103 -194 -19 -159 0
-250 -103 -194 -26 -159 0
-250 -103 -194 -61 -180 0
-250 -103 -194 -68 -180 0
-250 -103 -194 -124 -222 0
-250 -103 -194 -131 -222 0
-250 -103 -194 -138 -222 0
-250 -103 -194 -145 -222 0
-103 -194 250 19 159 26 159 61 180 68 180 124 222 131 222 138 222 145 222 0
-250 -103 -201 -19 -166 0
-250 -103 -201 -26 -166 0
-250 -103 -201 -61 -187 0
-250 -103 -201 -68 -187 0
-250 -103 -201 -124 -229 0
-250 -103 -201 -131 -229 0
-250 -103 -201 -138 -229 0
-250 -103 -201 -145 -229 0
-103 -201 250 19 166 26 166 61 187 68 187 124 229 131 229 138 229 145 229 0
-250 -110 -194 -26 -159 0
-250 -110 -194 -33 -159 0
-250 -110 -194 -68 -180 0
-250 -110 -194 -75 -180 0
-250 -110 -194 -131 -222 0
-250 -110 -194 -138 -222 0
-250 -110 -194 -145 -222 0
-110 -194 250 26 159 33 159 68 180 75 180 131 222 138 222 145 222 0
-250 -110 -201 -26 -166 0
-250 -110 -201 -33 -166 0
-250 -110 -201 -68 -187 0
-250 -110 -201 -75 -187 0
-250 -110 -201 -131 -229 0
-250 -110 -201 -138 -229 0
-250 -110 -201 -145 -229 0
-110 -201 250 26 166 33 166 68 187 75 187 131 229 138 229 145 229 0
-250 -117 -194 -33 -159 0
-250 -117 -194 -40 -159 0
-250 -117 -194 -75 -180 0
-250 -117 -194 -82 -180 0
-250 -117 -194 -138 -222 0
-250 -117 -194 -145 -222 0
-117 -194 250 33 159 40 159 75 180 82 180 138 222 145 222 0
-250 -117 -201 -33 -166 0
-250 -117 -201 -40 -166 0
-250 -117 -201 -75 -187 0
-250 -117 -201 -82 -187 0
-250 -117 -201 -138 -229 0
-250 -117 -201 -145 -229 0
-117 -201 250 33 166 40 166 75 187 82 187 138 229 145 229 0
-257 -124 -215 -5 -159 0
-257 -124 -215 -12 -159 0
-257 -124 -215 -19 -159 0
-257 -124 -215 -47 -180 0
-257 -124 -215 -54 -180 0
-257 -124 -215 -61 -180 0
-257 -124 -215 -89 -201 0
-257 -124 -215 -96 -201 0
-257 -124 -215 -103 -201 0
-124 -215 257 5 159 12 159 19 159 47 180 54 180 61 180 89 201 96 201 103 201 0
-257 -124 -222 -5 -166 0
-257 -124 -222 -12 -166 0
-257 -124 -222 -19 -166 0
-257 -124 -222 -47 -187 0
-257 -124 -222 -54 -187 0
-257 -124 -222 -61 -187 0
-257 -124 -222 -89 -208 0
-257 -124 -222 -96 -208 0
-257 -124 -222 -103 -208 0
-124 -222 257 5 166 12 166 19 166 47 187 54 187 61 187 89 208 96 208 103 208 0
-257 -131 -215 -12 -159 0
-257 -131 -215 -19 -159 0
-257 -131 -215 -26 -159 0
-257 -131 -215 -54 -180 0
-257 -131 -215 -61 -180 0
-257 -131 -215 -68 -180 0
-257 -131 -215 -89 -201 0
-257 -131 -215 -96 -201 0
-257 -131 -215 -103 -201 0
-257 -131 -215 -110 -201 0
-131 -215 257 12 159 19 159 26 159 54 180 61 180 68 180 89 201 96 201 103 201 110 201 0
-257 -131 -222 -12 -166 0
-257 -131 -222 -19 -166 0
-257 -131 -222 -26 -166 0
-257 -131 -222 -54 -187 0
-257 -131 -222 -61 -187 0
-257 -131 -222 -68 -187 0
-257 -131 -222 -89 -208 0
-257 -131 -222 -96 -208 0
-257 -131 -222 -103 -208 0
-257 -131 -222 -110 -208 0
-131 -222 257 12 166 19 166 26 166 54 187 61 187 68 187 89 208 96 208 103 208 110 208 0
-257 -138 -215 -19 -159 0
-257 -138 -215 -26 -159 0
-257 -138 -215 -33 -159 0
-257 -138 -215 -61 -180 0
-257 -138 -215 -68 -180 0
-257 -138 -215 -75 -180 0
-257 -138 -215 -96 -201 0
-257 -138 -215 -103 -201 0
-257 -138 -215 -110 -201 0
-257 -138 -215 -117 -201 0
-138 -215 257 19 159 26 159 33 159 61 180 68 180 75 180 96 201 103 201 110 201 117 201 0
-257 -138 -222 -19 -166 0
-257 -138 -222 -26 -166 0
-257 -138 -222 -33 -166 0
-257 -138 -222 -61 -187 0
-257 -138 -222 -68 -187 0
-257 -138 -222 -75 -187 0
-257 -138 -222 -96 -208 0
-257 -138 -222 -103 -208 0
-257 -138 -222 -110 -208 0
-257 -138 -222 -117 -208 0
-138 -222 257 19 166 26 166 33 166 61 187 68 187 75 187 96 208 103 208 110 208 117 208 0
-257 -145 -215 -26 -159 0
-257 -145 -215 -33 -159 0
-257 -145 -215 -40 -159 0
-257 -145 -215 -68 -180 0
-257 -145 -215 -75 -180 0
-257 -145 -215 -82 -180 0
-257 -145 -215 -103 -201 0
-257 -145 -215 -110 -201 0
-257 -145 -215 -117 -201 0
-145 -215 257 26 159 33 159 40 159 68 180 75 180 82 180 103 201 110 201 117 201 0
-257 -145 -222 -26 -166 0
-257 -145 -222 -33 -166 0
-257 -145 -222 -40 -166 0
-257 -145 -222 -68 -187 0
-257 -145 -222 -75 -187 0
-257 -145 -222 -82 -187 0
-257 -145 -222 -103 -208 0
-257 -145 -222 -110 -208 0
-257 -145 -222 -117 -208 0
-145 -222 257 26 166 33 166 40 166 68 187 75 187 82 187 103 208 110 208 117 208 0
-237 -6 -153 -48 -181 0
-237 -6 -153 -90 -202 0
-237 -6 -153 -125 -223 0
-6 -153 237 48 181 90 202 125 223 0
-237 -6 -160 -48 -188 0
-237 -6 -160 -90 -209 0
-237 -6 -160 -125 -230 0
-6 -160 237 48 188 90 209 125 230 0
-237 -13 -153 -55 -181 0
-237 -13 -153 -90 -202 0
-237 -13 -153 -97 -202 0
-237 -13 -153 -125 -223 0
-237 -13 -153 -132 -223 0
-13 -153 237 55 181 90 202 97 202 125 223 132 223 0
-237 -13 -160 -55 -188 0
-237 -13 -160 -90 -209 0
-237 -13 -160 -97 -209 0
-237 -13 -160 -125 -230 0
-237 -13 -160 -132 -230 0
-13 -160 237 55 188 90 209 97 209 125 230 132 230 0
-237 -20 -153 -62 -181 0
-237 -20 -153 -97 -202 0
-237 -20 -153 -104 -202 0
-237 -20 -153 -125 -223 0
-237 -20 -153 -132 -223 0
-237 -20 -153 -139 -223 0
-20 -153 237 62 181 97 202 104 202 125 223 132 223 139 223 0
-237 -20 -160 -62 -188 0
-237 -20 -160 -97 -209 0
-237 -20 -160 -104 -209 0
-237 -20 -160 -125 -230 0
-237 -20 -160 -132 -230 0
-237 -20 -160 -139 -230 0
-20 -160 237 62 188 97 209 104 209 125 230 132 230 139 230 0
-237 -27 -153 -69 -181 0
-237 -27 -153 -104 -202 0
-237 -27 -153 -111 -202 0
-237 -27 -153 -132 -223 0
-237 -27 -153 -139 -223 0
-237 -27 -153 -146 -223 0
-27 -153 237 69 181 104 202 111 202 132 223 139 223 146 223 0
-237 -27 -160 -69 -188 0
-237 -27 -160 -104 -209 0
-237 -27 -160 -111 -209 0
-237 -27 -160 -132 -230 0
-237 -27 -160 -139 -230 0
-237 -27 -160 -146 -230 0
-27 -160 237 69 188 104 209 111 209 132 230 139 230 146 230 0
-237 -34 -153 -76 -181 0
-237 -34 -153 -111 -202 0
-237 -34 -153 -118 -202 0
-237 -34 -153 -139 -223 0
-237 -34 -153 -146 -223 0
-34 -153 237 76 181 111 202 118 202 139 223 146 223 0
-237 -34 -160 -76 -188 0
-237 -34 -160 -111 -209 0
-237 -34 -160 -118 -209 0
-237 -34 -160 -139 -230 0
-237 -34 -160 -146 -230 0
-34 -160 237 76 188 111 209 118 209 139 230 146 230 0
-237 -41 -153 -83 -181 0
-237 -41 -153 -118 -202 0
-237 -41 -153 -146 -223 0
-41 -153 237 83 181 118 202 146 223 0
-237 -41 -160 -83 -188 0
-237 -41 -160 -118 -209 0
-237 -41 -160 -146 -230 0
-41 -160 237 83 188 118 209 146 230 0
-244 -48 -174 -6 -160 0
-244 -48 -174 -90 -202 0
-244 -48 -174 -125 -223 0
-48 -174 244 6 160 90 202 125 223 0
-244 -48 -181 -6 -167 0
-244 -48 -181 -90 -209 0
-244 -48 -181 -125 -230 0
-48 -181 244 6 167 90 209 125 230 0
-244 -55 -174 -13 -160 0
-244 -55 -174 -90 -202 0
-244 -55 -174 -97 -202 0
-244 -55 -174 -125 -223 0
-244 -55 -174 -132 -223 0
-55 -174 244 13 160 90 202 97 202 125 223 132 223 0
-244 -55 -181 -13 -167 0
-244 -55 -181 -90 -209 0
-244 -55 -181 -97 -209 0
-244 -55 -181 -125 -230 0
-244 -55 -181 -132 -230 0
-55 -181 244 13 167 90 209 97 209 125 230 132 230 0
-244 -62 -174 -20 -160 0
-244 -62 -174 -97 -202 0
-244 -62 -174 -104 -202 0
-244 -62 -174 -125 -223 0
-244 -62 -174 -132 -223 0
-244 -62 -174 -139 -223 0
-62 -174 244 20 160 97 202 104 202 125 223 132 223 139 223 0
-244 -62 -181 -20 -167 0
-244 -62 -181 -97 -209 0
-244 -62 -181 -104 -209 0
-244 -62 -181 -125 -230 0
-244 -62 -181 -132 -230 0
-244 -62 -181 -139 -230 0
-62 -181 244 20 167 97 209 104 209 125 230 132 230 139 230 0
-244 -69 -174 -27 -160 0
-244 -69 -174 -104 -202 0
-244 -69 -174 -111 -202 0
-244 -69 -174 -132 -223 0
-244 -69 -174 -139 -223 0
-244 -69 -174 -146 -223 0
-69 -174 244 27 160 104 202 111 202 132 223 139 223 146 223 0
-244 -69 -181 -27 -167 0
-244 -69 -181 -104 -209 0
-244 -69 -181 -111 -209 0
-244 -69 -181 -132 -230 0
-244 -69 -181 -139 -230 0
-244 -69 -181 -146 -230 0
-69 -181 244 27 167 104 209 111 209 132 230 139 230 146 230 0
-244 -76 -174 -34 -160 0
-244 -76 -174 -111 -202 0
-244 -76 -174 -118 -202 0
-244 -76 -174 -139 -223 0
-244 -76 -174 -146 -223 0
-76 -174 244 34 160 111 202 118 202 139 223 146 223 0
-244 -76 -181 -34 -167 0
-244 -76 -181 -111 -209 0
-244 -76 -181 -118 -209 0
-244 -76 -181 -139 -230 0
-244 -76 -181 -146 -230 0
-76 -181 244 34 167 111 209 118 209 139 230 146 230 0
-244 -83 -174 -41 -160 0
-244 -83 -174 -118 -202 0
-244 -83 -174 -146 -223 0
-83 -174 244 41 160 118 202 146 223 0
-244 -83 -181 -41 -167 0
-244 -83 -181 -118 -209 0
-244 -83 -181 -146 -230 0
-83 -181 244 41 167 118 209 146 230 0
-251 -90 -195 -6 -160 0
-251 -90 -195 -13 -160 0
-251 -90 -195 -48 -181 0
-251 -90 -195 -55 -181 0
-251 -90 -195 -125 -223 0
-251 -90 -195 -132 -223 0
-90 -195 251 6 160 13 160 48 181 55 181 125 223 132 223 0
-251 -90 -202 -6 -167 0
-251 -90 -202 -13 -167 0
-251 -90 -202 -48 -188 0
-251 -90 -202 -55 -188 0
-251 -90 -202 -125 -230 0
-251 -90 -202 -132 -230 0
-90 -202 251 6 167 13 167 48 188 55 188 125 230 132 230 0
-251 -97 -195 -13 -160 0
-251 -97 -195 -20 -160 0
-251 -97 -195 -55 -181 0
-251 -97 -195 -62 -181 0
-251 -97 -195 -125 -223 0
-251 -97 -195 -132 -223 0
-251 -97 -195 -139 -223 0
-97 -195 251 13 160 20 160 55 181 62 181 125 223 132 223 139 223 0
-251 -97 -202 -13 -167 0
-251 -97 -202 -20 -167 0
-251 -97 -202 -55 -188 0
-251 -97 -202 -62 -188 0
-251 -97 -202 -125 -230 0
-251 -97 -202 -132 -230 0
-251 -97 -202 -139 -230 0
-97 -202 251 13 167 20 167 55 188 62 188 125 230 132 230 139 230 0
-251 -104 -195 -20 -160 0
-251 -104 -195 -27 -160 0
-251 -104 -195 -62 -181 0
-251 -104 -195 -69 -181 0
-251 -104 -195 -125 -223 0
-251 -104 -195 -132 -223 0
-251 -104 -195 -139 -223 0
-251 -104 -195 -146 -223 0
-104 -195 251 20 160 27 160 62 181 69 181 125 223 132 223 139 223 146 223 0
-251 -104 -202 -20 -167 0
-251 -104 -202 -27 -167 0
-251 -104 -202 -62 -188 0
-251 -104 -202 -69 -188 0
-251 -104 -202 -125 -230 0
-251 -104 -202 -132 -230 0
-251 -104 -202 -139 -230 0
-251 -104 -202 -146 -230 0
-104 -202 251 20 167 27 167 62 188 69 188 125 230 132 230 139 230 146 230 0
-251 -111 -195 -27 -160 0
-251 -111 -195 -34 -160 0
-251 -111 -195 -69 -181 0
-251 -111 -195 -76 -181 0
-251 -111 -195 -132 -223 0
-251 -111 -195 -139 -223 0
-251 -111 -195 -146 -223 0
-111 -195 251 27 160 34 160 69 181 76 181 132 223 139 223 146 223 0
-251 -111 -202 -27 -167 0
-251 -111 -202 -34 -167 0
-251 -111 -202 -69 -188 0
-251 -111 -202 -76 -188 0
-251 -111 -202 -132 -230 0
-251 -111 -202 -139 -230 0
-251 -111 -202 -146 -230 0
-111 -202 251 27 167 34 167 69 188 76 188 132 230 139 230 146 230 0
-251 -118 -195 -34 -160 0
-251 -118 -195 -41 -160 0
-251 -118 -195 -76 -181 0
-251 -118 -195 -83 -181 0
-251 -118 -195 -139 -223 0
-251 -118 -195 -146 -223 0
-118 -195 251 34 160 41 160 76 181 83 181 139 223 146 223 0
-251 -118 -202 -34 -167 0
-251 -118 -202 -41 -167 0
-251 -118 -202 -76 -188 0
-251 -118 -202 -83 -188 0
-251 -118 -202 -139 -230 0
-251 -118 -202 -146 -230 0
-118 -202 251 34 167 41 167 76 188 83 188 139 230 146 230 0
-258 -125 -216 -6 -160 0
-258 -125 -216 -13 -160 0
-258 -125 -216 -20 -160 0
-258 -125 -216 -48 -181 0
-258 -125 -216 -55 -181 0
-258 -125 -216 -62 -181 0
-258 -125 -216 -90 -202 0
-258 -125 -216 -97 -202 0
-258 -125 -216 -104 -202 0
-125 -216 258 6 160 13 160 20 160 48 181 55 181 62 181 90 202 97 202 104 202 0
-258 -125 -223 -6 -167 0
-258 -125 -223 -13 -167 0
-258 -125 -223 -20 -167 0
-258 -125 -223 -48 -188 0
-258 -125 -223 -55 -188 0
-258 -125 -223 -62 -188 0
-258 -125 -223 -90 -209 0
-258 -125 -223 -97 -209 0
-258 -125 -223 -104 -209 0
-125 -223 258 6 167 13 167 20 167 48 188 55 188 62 188 90 209 97 209 104 209 0
-258 -132 -216 -13 -160 0
-258 -132 -216 -20 -160 0
-258 -132 -216 -27 -160 0
-258 -132 -216 -55 -181 0
-258 -132 -216 -62 -181 0
-258 -132 -216 -69 -181 0
-258 -132 -216 -90 -202 0
-258 -132 -216 -97 -202 0
-258 -132 -216 -104 -202 0
-258 -132 -216 -111 -202 0
-132 -216 258 13 160 20 160 27 160 55 181 62 181 69 181 90 202 97 202 104 202 111 202 0
-258 -132 -223 -13 -167 0
-258 -132 -223 -20 -167 0
-258 -132 -223 -27 -167 0
-258 -132 -223 -55 -188 0
-258 -132 -223 -62 -188 0
-258 -132 -223 -69 -188 0
-258 -132 -223 -90 -209 0
-258 -132 -223 -97 -209 0
-258 -132 -223 -104 -209 0
-258 -132 -223 -111 -209 0
-132 -223 258 13 167 20 167 27 167 55 188 62 188 69 188 90 209 97 209 104 209 111 209 0
-258 -139 -216 -20 -160 0
-258 -139 -216 -27 -160 0
-258 -139 -216 -34 -160 0
-258 -139 -216 -62 -181 0
-258 -139 -216 -69 -181 0
-258 -139 -216 -76 -181 0
-258 -139 -216 -97 -202 0
-258 -139 -216 -104 -202 0
-258 -139 -216 -111 -202 0
-258 -139 -216 -118 -202 0
-139 -216 258 20 160 27 160 34 160 62 181 69 181 76 181 97 202 104 202 111 202 118 202 0
-258 -139 -223 -20 -167 0
-258 -139 -223 -27 -167 0
-258 -139 -223 -34 -167 0
-258 -139 -223 -62 -188 0
-258 -139 -223 -69 -188 0
-258 -139 -223 -76 -188 0
-258 -139 -223 -97 -209 0
-258 -139 -223 -104 -209 0
-258 -139 -223 -111 -209 0
-258 -139 -223 -118 -209 0
-139 -223 258 20 167 27 167 34 167 62 188 69 188 76 188 97 209 104 209 111 209 118 209 0
-258 -146 -216 -27 -160 0
-258 -146 -216 -34 -160 0
-258 -146 -216 -41 -160 0
-258 -146 -216 -69 -181 0
-258 -146 -216 -76 -181 0
-258 -146 -216 -83 -181 0
-258 -146 -216 -104 -202 0
-258 -146 -216 -111 -202 0
-258 -146 -216 -118 -202 0
-146 -216 258 27 160 34 160 41 160 69 181 76 181 83 181 104 202 111 202 118 202 0
-258 -146 -223 -27 -167 0
-258 -146 -223 -34 -167 0
-258 -146 -223 -41 -167 0
-258 -146 -223 -69 -188 0
-258 -146 -223 -76 -188 0
-258 -146 -223 -83 -188 0
-258 -146 -223 -104 -209 0
-258 -146 -223 -111 -209 0
-258 -146 -223 -118 -209 0
-146 -223 258 27 167 34 167 41 167 69 188 76 188 83 188 104 209 111 209 118 209 0
-238 -7 -154 -49 -182 0
-238 -7 -154 -91 -203 0
-238 -7 -154 -126 -224 0
-7 -154 238 49 182 91 203 126 224 0
-238 -7 -161 -49 -189 0
-238 -7 -161 -91 -210 0
-238 -7 -161 -126 -231 0
-7 -161 238 49 189 91 210 126 231 0
-238 -14 -154 -56 -182 0
-238 -14 -154 -91 -203 0
-238 -14 -154 -98 -203 0
-238 -14 -154 -126 -224 0
-238 -14 -154 -133 -224 0
-14 -154 238 56 182 91 203 98 203 126 224 133 224 0
-238 -14 -161 -56 -189 0
-238 -14 -161 -91 -210 0
-238 -14 -161 -98 -210 0
-238 -14 -161 -126 -231 0
-238 -14 -161 -133 -231 0
-14 -161 238 56 189 91 210 98 210 126 231 133 231 0
-238 -21 -154 -63 -182 0
-238 -21 -154 -98 -203 0
-238 -21 -154 -105 -203 0
-238 -21 -154 -126 -224 0
-238 -21 -154 -133 -224 0
-238 -21 -154 -140 -224 0
-21 -154 238 63 182 98 203 105 203 126 224 133 224 140 224 0
-238 -21 -161 -63 -189 0
-238 -21 -161 -98 -210 0
-238 -21 -161 -105 -210 0
-238 -21 -161 -126 -231 0
-238 -21 -161 -133 -231 0
-238 -21 -161 -140 -231 0
-21 -161 238 63 189 98 210 105 210 126 231 133 231 140 231 0
-238 -28 -154 -70 -182 0
-238 -28 -154 -105 -203 0
-238 -28 -154 -112 -203 0
-238 -28 -154 -133 -224 0
-238 -28 -154 -140 -224 0
-238 -28 -154 -147 -224 0
-28 -154 238 70 182 105 203 112 203 133 224 140 224 147 224 0
-238 -28 -161 -70 -189 0
-238 -28 -161 -105 -210 0
-238 -28 -161 -112 -210 0
-238 -28 -161 -133 -231 0
-238 -28 -161 -140 -231 0
-238 -28 -161 -147 -231 0
-28 -161 238 70 189 105 210 112 210 133 231 140 231 147 231 0
-238 -35 -154 -77 -182 0
-238 -35 -154 -112 -203 0
-238 -35 -154 -119 -203 0
-238 -35 -154 -140 -224 0
-238 -35 -154 -147 -224 0
-35 -154 238 77 182 112 203 119 203 140 224 147 224 0
-238 -35 -161 -77 -189 0
-238 -35 -161 -112 -210 0
-238 -35 -161 -119 -210 0
-238 -35 -161 -140 -231 0
-238 -35 -161 -147 -231 0
-35 -161 238 77 189 112 210 119 210 140 231 147 231 0
-238 -42 -154 -84 -182 0
-238 -42 -154 -119 -203 0
-238 -42 -154 -147 -224 0
-42 -154 238 84 182 119 203 147 224 0
-238 -42 -161 -84 -189 0
-238 -42 -161 -119 -210 0
-238 -42 -161 -147 -231 0
-42 -161 238 84 189 119 210 147 231 0
-245 -49 -175 -7 -161 0
-245 -49 -175 -91 -203 0
-245 -49 -175 -126 -224 0
-49 -175 245 7 161 91 203 126 224 0
-245 -49 -182 -7 -168 0
-245 -49 -182 -91 -210 0
-245 -49 -182 -126 -231 0
-49 -182 245 7 168 91 210 126 231 0
-245 -56 -175 -14 -161 0
-245 -56 -175 -91 -203 0
-245 -56 -175 -98 -203 0
-245 -56 -175 -126 -224 0
-245 -56 -175 -133 -224 0
-56 -175 245 14 161 91 203 98 203 126 224 133 224 0
-245 -56 -182 -14 -168 0
-245 -56 -182 -91 -210 0
-245 -56 -182 -98 -210 0
-245 -56 -182 -126 -231 0
-245 -56 -182 -133 -231 0
-56 -182 245 14 168 91 210 98 210 126 231 133 231 0
-245 -63 -175 -21 -161 0
-245 -63 -175 -98 -203 0
-245 -63 -175 -105 -203 0
-245 -63 -175 -126 -224 0
-245 -63 -175 -133 -224 0
-245 -63 -175 -140 -224 0
-63 -175 245 21 161 98 203 105 203 126 224 133 224 140 224 0
-245 -63 -182 -21 -168 0
-245 -63 -182 -98 -210 0
-245 -63 -182 -105 -210 0
-245 -63 -182 -126 -231 0
-245 -63 -182 -133 -231 0
-245 -63 -182 -140 -231 0
-63 -182 245 21 168 98 210 105 210 126 231 133 231 140 231 0
-245 -70 -175 -28 -161 0
-245 -70 -175 -105 -203 0
-245 -70 -175 -112 -203 0
-245 -70 -175 -133 -224 0
-245 -70 -175 -140 -224 0
-245 -70 -175 -147 -224 0
-70 -175 245 28 161 105 203 112 203 133 224 140 224 147 224 0
-245 -70 -182 -28 -168 0
-245 -70 -182 -105 -210 0
-245 -70 -182 -112 -210 0
-245 -70 -182 -133 -231 0
-245 -70 -182 -140 -231 0
-245 -70 -182 -147 -231 0
-70 -182 245 28 168 105 210 112 210 133 231 140 231 147 231 0
-245 -77 -175 -35 -161 0
-245 -77 -175 -112 -203 0
-245 -77 -175 -119 -203 0
-245 -77 -175 -140 -224 0
-245 -77 -175 -147 -224 0
-77 -175 245 35 161 112 203 119 203 140 224 147 224 0
-245 -77 -182 -35 -168 0
-245 -77 -182 -112 -210 0
-245 -77 -182 -119 -210 0
-245 -77 -182 -140 -231 0
-245 -77 -182 -147 -231 0
-77 -182 245 35 168 112 210 119 210 140 231 147 231 0
-245 -84 -175 -42 -161 0
-245 -84 -175 -119 -203 0
-245 -84 -175 -147 -224 0
-84 -175 245 42 161 119 203 147 224 0
-245 -84 -182 -42 -168 0
-245 -84 -182 -119 -210 0
-245 -84 -182 -147 -231 0
-84 -182 245 42 168 119 210 147 231 0
-252 -91 -196 -7 -161 0
-252 -91 -196 -14 -161 0
-252 -91 -196 -49 -182 0
-252 -91 -196 -56 -182 0
-252 -91 -196 -126 -224 0
-252 -91 -196 -133 -224 0
-91 -196 252 7 161 14 161 49 182 56 182 126 224 133 224 0
-252 -91 -203 -7 -168 0
-252 -91 -203 -14 -168 0
-252 -91 -203 -49 -189 0
-252 -91 -203 -56 -189 0
-252 -91 -203 -126 -231 0
-252 -91 -203 -133 -231 0
-91 -203 252 7 168 14 168 49 189 56 189 126 231 133 231 0
-252 -98 -196 -14 -161 0
-252 -98 -196 -21 -161 0
-252 -98 -196 -56 -182 0
-252 -98 -196 -63 -182 0
-252 -98 -196 -126 -224 0
-252 -98 -196 -133 -224 0
-252 -98 -196 -140 -224 0
-98 -196 252 14 161 21 161 56 182 63 182 126 224 133 224 140 224 0
-252 -98 -203 -14 -168 0
-252 -98 -203 -21 -168 0
-252 -98 -203 -56 -189 0
-252 -98 -203 -63 -189 0
-252 -98 -203 -126 -231 0
-252 -98 -203 -133 -231 0
-252 -98 -203 -140 -231 0
-98 -203 252 14 168 21 168 56 189 63 189 126 231 133 231 140 231 0
-252 -105 -196 -21 -161 0
-252 -105 -196 -28 -161 0
-252 -105 -196 -63 -182 0
-252 -105 -196 -70 -182 0
-252 -105 -196 -126 -224 0
-252 -105 -196 -133 -224 0
-252 -105 -196 -140 -224 0
-252 -105 -196 -147 -224 0
-105 -196 252 21 161 28 161 63 182 70 182 126 224 133 224 140 224 147 224 0
-252 -105 -203 -21 -168 0
-252 -105 -203 -28 -168 0
-252 -105 -203 -63 -189 0
-252 -105 -203 -70 -189 0
-252 -105 -203 -126 -231 0
-252 -105 -203 -133 -231 0
-252 -105 -203 -140 -231 0
-252 -105 -203 -147 -231 0
-105 -203 252 21 168 28 168 63 189 70 189 126 231 133 231 140 231 147 231 0
-252 -112 -196 -28 -161 0
-252 -112 -196 -35 -161 0
-252 -112 -196 -70 -182 0
-252 -112 -196 -77 -182 0
-252 -112 -196 -133 -224 0
-252 -112 -196 -140 -224 0
-252 -112 -196 -147 -224 0
-112 -196 252 28 161 35 161 70 182 77 182 133 224 140 224 147 224 0
-252 -112 -203 -28 -168 0
-252 -112 -203 -35 -168 0
-252 -112 -203 -70 -189 0
-252 -112 -203 -77 -189 0
-252 -112 -203 -133 -231 0
-252 -112 -203 -140 -231 0
-252 -112 -203 -147 -231 0
-112 -203 252 28 168 35 168 70 189 77 189 133 231 140 231 147 231 0
-252 -119 -196 -35 -161 0
-252 -119 -196 -42 -161 0
-252 -119 -196 -77 -182 0
-252 -119 -196 -84 -182 0
-252 -119 -196 -140 -224 0
-252 -119 -196 -147 -224 0
-119 -196 252 35 161 42 161 77 182 84 182 140 224 147 224 0
-252 -119 -203 -35 -168 0
-252 -119 -203 -42 -168 0
-252 -119 -203 -77 -189 0
-252 -119 -203 -84 -189 0
-252 -119 -203 -140 -231 0
-252 -119 -203 -147 -231 0
-119 -203 252 35 168 42 168 77 189 84 189 140 231 147 231 0
-259 -126 -217 -7 -161 0
-259 -126 -217 -14 -161 0
-259 -126 -217 -21 -161 0
-259 -126 -217 -49 -182 0
-259 -126 -217 -56 -182 0
-259 -126 -217 -63 -182 0
-259 -126 -217 -91 -203 0
-259 -126 -217 -98 -203 0
-259 -126 -217 -105 -203 0
-126 -217 259 7 161 14 161 21 161 49 182 56 182 63 182 91 203 98 203 105 203 0
-259 -126 -224 -7 -168 0
-259 -126 -224 -14 -168 0
-259 -126 -224 -21 -168 0
-259 -126 -224 -49 -189 0
-259 -126 -224 -56 -189 0
-259 -126 -224 -63 -189 0
-259 -126 -224 -91 -210 0
-259 -126 -224 -98 -210 0
-259 -126 -224 -105 -210 0
-126 -224 259 7 168 14 168 21 168 49 189 56 189 63 189 91 210 98 210 105 210 0
-259 -133 -217 -14 -161 0
-259 -133 -217 -21 -161 0
-259 -133 -217 -28 -161 0
-259 -133 -217 -56 -182 0
-259 -133 -217 -63 -182 0
-259 -133 -217 -70 -182 0
-259 -133 -217 -91 -203 0
-259 -133 -217 -98 -203 0
-259 -133 -217 -105 -203 0
-259 -133 -217 -112 -203 0
-133 -217 259 14 161 21 161 28 161 56 182 63 182 70 182 91 203 98 203 105 203 112 203 0
-259 -133 -224 -14 -168 0
-259 -133 -224 -21 -168 0
-259 -133 -224 -28 -168 0
-259 -133 -224 -56 -189 0
-259 -133 -224 -63 -189 0
-259 -133 -224 -70 -189 0
-259 -133 -224 -91 -210 0
-259 -133 -224 -98 -210 0
-259 -133 -224 -105 -210 0
-259 -133 -224 -112 -210 0
-133 -224 259 14 168 21 168 28 168 56 189 63 189 70 189 91 210 98 210 105 210 112 210 0
-259 -140 -217 -21 -161 0
-259 -140 -217 -28 -161 0
-259 -140 -217 -35 -161 0
-259 -140 -217 -63 -182 0
-259 -140 -217 -70 -182 0
-259 -140 -217 -77 -182 0
-259 -140 -217 -98 -203 0
-259 -140 -217 -105 -203 0
-259 -140 -217 -112 -203 0
-259 -140 -217 -119 -203 0
-140 -217 259 21 161 28 161 35 161 63 182 70 182 77 182 98 203 105 203 112 203 119 203 0
-259 -140 -224 -21 -168 0
-259 -140 -224 -28 -168 0
-259 -140 -224 -35 -168 0
-259 -140 -224 -63 -189 0
-259 -140 -224 -70 -189 0
-259 -140 -224 -77 -189 0
-259 -140 -224 -98 -210 0
-259 -140 -224 -105 -210 0
-259 -140 -224 -112 -210 0
-259 -140 -224 -119 -210 0
-140 -224 259 21 168 28 168 35 168 63 189 70 189 77 189 98 210 105 210 112 210 119 210 0
-259 -147 -217 -28 -161 0
-259 -147 -217 -35 -161 0
-259 -147 -217 -42 -161 0
-259 -147 -217 -70 -182 0
-259 -147 -217 -77 -182 0
-259 -147 -217 -84 -182 0
-259 -147 -217 -105 -203 0
-259 -147 -217 -112 -203 0
-259 -147 -217 -119 -203 0
-147 -217 259 28 161 35 161 42 161 70 182 77 182 84 182 105 203 112 203 119 203 0
-259 -147 -224 -28 -168 0
-259 -147 -224 -35 -168 0
-259 -147 -224 -42 -168 0
-259 -147 -224 -70 -189 0
-259 -147 -224 -77 -189 0
-259 -147 -224 -84 -189 0
-259 -147 -224 -105 -210 0
-259 -147 -224 -112 -210 0
-259 -147 -224 -119 -210 0
-147 -224 259 28 168 35 168 42 168 70 189 77 189 84 189 105 210 112 210 119 210 0
22 0
148 0
78 0
169 0
85 0
190 0
141 0
218 0
7 0
161 0
56 0
182 0
91 0
196 0
147 0
217 0
764 770 776 782 788 794 800 806 812 818 824 830 836 842 848 854 860 866 872 878 884 890 896 902 908 914 920 926 932 938 944 950 956 962 968 974 980 986 992 998 1004 1010 1016 1022 1028 1034 1040 1046 1052 1058 1064 1070 1076 1082 1088 1094 1100 1106 1112 1118 1124 1130 1136 1142 1148 1154 1160 1166 1172 1178 1184 1190 1196 1202 1208 1214 1220 1226 1232 1238 1244 1250 1256 1262 0
-764 -770 0
-764 -776 0
-764 -782 0
-764 -788 0
-764 -794 0
-764 -800 0
-764 -806 0
-764 -812 0
-764 -818 0
-764 -824 0
-764 -830 0
-764 -836 0
-764 -842 0
-764 -848 0
-764 -854 0
-764 -860 0
-764 -866 0
-764 -872 0
-764 -878 0
-764 -884 0
-764 -890 0
-764 -896 0
-764 -902 0
-764 -908 0
-764 -914 0
-764 -920 0
-764 -926 0
-764 -932 0
-764 -938 0
-764 -944 0
-764 -950 0
-764 -956 0
-764 -962 0
-764 -968 0
-764 -974 0
-764 -980 0
-764 -986 0
-764 -992 0
-764 -998 0
-764 -1004 0
-764 -1010 0
-764 -1016 0
-764 -1022 0
-764 -1028 0
-764 -1034 0
-764 -1040 0
-764 -1046 0
-764 -1052 0
-764 -1058 0
-764 -1064 0
-764 -1070 0
-764 -1076 0
-764 -1082 0
-764 -1088 0
-764 -1094 0
-764 -1100 0
-764 -1106 0
-764 -1112 0
-764 -1118 0
-764 -1124 0
-764 -1130 0
-764 -1136 0
-764 -1142 0
-764 -1148 0
-764 -1154 0
-764 -1160 0
-764 -1166 0
-764 -1172 0
-764 -1178 0
-764 -1184 0
-764 -1190 0
-764 -1196 0
-764 -1202 0
-764 -1208 0
-764 -1214 0
-764 -1220 0
-764 -1226 0
-764 -1232 0
-764 -1238 0
-764 -1244 0
-764 -1250 0
-764 -1256 0
-764 -1262 0
-770 -776 0
-770 -782 0
-770 -788 0
-770 -794 0
-770 -800 0
-770 -806 0
-770 -812 0
-770 -818 0
-770 -824 0
-770 -830 0
-770 -836 0
-770 -842 0
-770 -848 0
-770 -854 0
-770 -860 0
-770 -866 0
-770 -872 0
-770 -878 0
-770 -884 0
-770 -890 0
-770 -896 0
-770 -902 0
-770 -908 0
-770 -914 0
-770 -920 0
-770 -926 0
-770 -932 0
-770 -938 0
-770 -944 0
-770 -950 0
-770 -956 0
-770 -962 0
-770 -968 0
-770 -974 0
-770 -980 0
-770 -986 0
-770 -992 0
-770 -998 0
-770 -1004 0
-770 -1010 0
-770 -1016 0
-770 -1022 0
-770 -1028 0
-770 -1034 0
-770 -1040 0
-770 -1046 0
-770 -1052 0
-770 -1058 0
-770 -1064 0
-770 -1070 0
-770 -1076 0
-770 -1082 0
-770 -1088 0
-770 -1094 0
-770 -1100 0
-770 -1106 0
-770 -1112 0
-770 -1118 0
-770 -1124 0
-770 -1130 0
-770 -1136 0
-770 -1142 0
-770 -1148 0
-770 -1154 0
-770 -1160 0
-770 -1166 0
-770 -1172 0
-770 -1178 0
-770 -1184 0
-770 -1190 0
-770 -1196 0
-770 -1202 0
-770 -1208 0
-770 -1214 0
-770 -1220 0
-770 -1226 0
-770 -1232 0
-770 -1238 0
-770 -1244 0
-770 -1250 0
-770 -1256 0
-770 -1262 0
-776 -782 0
-776 -788 0
-776 -794 0
-776 -800 0
-776 -806 0
-776 -812 0
-776 -818 0
-776 -824 0
-776 -830 0
-776 -836 0
-776 -842 0
-776 -848 0
-776 -854 0
-776 -860 0
-776 -866 0
-776 -872 0
-776 -878 0
-776 -884 0
-776 -890 0
-776 -896 0
-776 -902 0
-776 -908 0
-776 -914 0
-776 -920 0
-776 -926 0
-776 -932 0
-776 -938 0
-776 -944 0
-776 -950 0
-776 -956 0
-776 -962 0
-776 -968 0
-776 -974 0
-776 -980 0
-776 -986 0
-776 -992 0
-776 -998 0
-776 -1004 0
-776 -1010 0
-776 -1016 0
-776 -1022 0
-776 -1028 0
-776 -1034 0
-776 -1040 0
-776 -1046 0
-776 -1052 0
-776 -1058 0
-776 -1064 0
-776 -1070 0
-776 -1076 0
-776 -1082 0
-776 -1088 0
-776 -1094 0
-776 -1100 0
-776 -1106 0
-776 -1112 0
-776 -1118 0
-776 -1124 0
-776 -1130 0
-776 -1136 0
-776 -1142 0
-776 -1148 0
-776 -1154 0
-776 -1160 0
-776 -1166 0
-776 -1172 0
-776 -1178 0
-776 -1184 0
-776 -1190 0
-776 -1196 0
-776 -1202 0
-776 -1208 0
-776 -1214 0
-776 -1220 0
-776 -1226 0
-776 -1232 0
-776 -1238 0
-776 -1244 0
-776 -1250 0
-776 -1256 0
-776 -1262 0
-782 -788 0
-782 -794 0
-782 -800 0
-782 -806 0
-782 -812 0
-782 -818 0
-782 -824 0
-782 -830 0
-782 -836 0
-782 -842 0
-782 -848 0
-782 -854 0
-782 -860 0
-782 -866 0
-782 -872 0
-782 -878 0
-782 -884 0
-782 -890 0
-782 -896 0
-782 -902 0
-782 -908 0
-782 -914 0
-782 -920 0
-782 -926 0
-782 -932 0
-782 -938 0
-782 -944 0
-782 -950 0
-782 -956 0
-782 -962 0
-782 -968 0
-782 -974 0
-782 -980 0
-782 -986 0
-782 -992 0
-782 -998 0
-782 -1004 0
-782 -1010 0
-782 -1016 0
-782 -1022 0
-782 -1028 0
-782 -1034 0
-782 -1040 0
-782 -1046 0
-782 -1052 0
-782 -1058 0
-782 -1064 0
-782 -1070 0
-782 -1076 0
-782 -1082 0
-782 -1088 0
-782 -1094 0
-782 -1100 0
-782 -1106 0
-782 -1112 0
-782 -1118 0
-782 -1124 0
-782 -1130 0
-782 -1136 0
-782 -1142 0
-782 -1148 0
-782 -1154 0
-782 -1160 0
-782 -1166 0
-782 -1172 0
-782 -1178 0
-782 -1184 0
-782 -1190 0
-782 -1196 0
-782 -1202 0
-782 -1208 0
-782 -1214 0
-782 -1220 0
-782 -1226 0
-782 -1232 0
-782 -1238 0
-782 -1244 0
-782 -1250 0
-782 -1256 0
-782 -1262 0
-788 -794 0
-788 -800 0
-788 -806 0
-788 -812 0
-788 -818 0
-788 -824 0
-788 -830 0
-788 -836 0
-788 -842 0
-788 -848 0
-788 -854 0
-788 -860 0
-788 -866 0
-788 -872 0
-788 -878 0
-788 -884 0
-788 -890 0
-788 -896 0
-788 -902 0
-788 -908 0
-788 -914 0
-788 -920 0
-788 -926 0
-788 -932 0
-788 -938 0
-788 -944 0
-788 -950 0
-788 -956 0
-788 -962 0
-788 -968 0
-788 -974 0
-788 -980 0
-788 -986 0
-788 -992 0
-788 -998 0
-788 -1004 0
-788 -1010 0
-788 -1016 0
-788 -1022 0
-788 -1028 0
-788 -1034 0
-788 -1040 0
-788 -1046 0
-788 -1052 0
-788 -1058 0
-788 -1064 0
-788 -1070 0
-788 -1076 0
-788 -1082 0
-788 -1088 0
-788 -1094 0
-788 -1100 0
-788 -1106 0
-788 -1112 0
-788 -1118 0
-788 -1124 0
-788 -1130 0
-788 -1136 0
-788 -1142 0
-788 -1148 0
-788 -1154 0
-788 -1160 0
-788 -1166 0
-788 -1172 0
-788 -1178 0
-788 -1184 0
-788 -1190 0
-788 -1196 0
-788 -1202 0
-788 -1208 0
-788 -1214 0
-788 -1220 0
-788 -1226 0
-788 -1232 0
-788 -1238 0
-788 -1244 0
-788 -1250 0
-788 -1256 0
-788 -1262 0
-794 -800 0
-794 -806 0
-794 -812 0
-794 -818 0
-794 -824 0
-794 -830 0
-794 -836 0
-794 -842 0
-794 -848 0
-794 -854 0
-794 -860 0
-794 -866 0
-794 -872 0
-794 -878 0
-794 -884 0
-794 -890 0
-794 -896 0
-794 -902 0
-794 -908 0
-794 -914 0
-794 -920 0
-794 -926 0
-794 -932 0
-794 -938 0
-794 -944 0
-794 -950 0
-794 -956 0
-794 -962 0
-794 -968 0
-794 -974 0
-794 -980 0
-794 -986 0
-794 -992 0
-794 -998 0
-794 -1004 0
-794 -1010 0
-794 -1016 0
-794 -1022 0
-794 -1028 0
-794 -1034 0
-794 -1040 0
-794 -1046 0
-794 -1052 0
-794 -1058 0
-794 -1064 0
-794 -1070 0
-794 -1076 0
-794 -1082 0
-794 -1088 0
-794 -1094 0
-794 -1100 0
-794 -1106 0
-794 -1112 0
-794 -1118 0
-794 -1124 0
-794 -1130 0
-794 -1136 0
-794 -1142 0
-794 -1148 0
-794 -1154 0
-794 -1160 0
-794 -1166 0
-794 -1172 0
-794 -1178 0
-794 -1184 0
-794 -1190 0
-794 -1196 0
-794 -1202 0
-794 -1208 0
-794 -1214 0
-794 -1220 0
-794 -1226 0
-794 -1232 0
-794 -1238 0
-794 -1244 0
-794 -1250 0
-794 -1256 0
-794 -1262 0
-800 -806 0
-800 -812 0
-800 -818 0
-800 -824 0
-800 -830 0
-800 -836 0
-800 -842 0
-800 -848 0
-800 -854 0
-800 -860 0
-800 -866 0
-800 -872 0
-800 -878 0
-800 -884 0
-800 -890 0
-800 -896 0
-800 -902 0
-800 -908 0
-800 -914 0
-800 -920 0
-800 -926 0
-800 -932 0
-800 -938 0
-800 -944 0
-800 -950 0
-800 -956 0
-800 -962 0
-800 -968 0
-800 -974 0
-800 -980 0
-800 -986 0
-800 -992 0
-800 -998 0
-800 -1004 0
-800 -1010 0
-800 -1016 0
-800 -1022 0
-800 -1028 0
-800 -1034 0
-800 -1040 0
-800 -1046 0
-800 -1052 0
-800 -1058 0
-800 -1064 0
-800 -1070 0
-800 -1076 0
-800 -1082 0
-800 -1088 0
-800 -1094 0
-800 -1100 0
-800 -1106 0
-800 -1112 0
-800 -1118 0
-800 -1124 0
-800 -1130 0
-800 -1136 0
-800 -1142 0
-800 -1148 0
-800 -1154 0
-800 -1160 0
-800 -1166 0
-800 -1172 0
-800 -1178 0
-800 -1184 0
-800 -1190 0
-800 -1196 0
-800 -1202 0
-800 -1208 0
-800 -1214 0
-800 -1220 0
-800 -1226 0
-800 -1232 0
-800 -1238 0
-800 -1244 0
-800 -1250 0
-800 -1256 0
-800 -1262 0
-806 -812 0
-806 -818 0
-806 -824 0
-806 -830 0
-806 -836 0
-806 -842 0
-806 -848 0
-806 -854 0
-806 -860 0
-806 -866 0
-806 -872 0
-806 -878 0
-806 -884 0
-806 -890 0
-806 -896 0
-806 -902 0
-806 -908 0
-806 -914 0
-806 -920 0
-806 -926 0
-806 -932 0
-806 -938 0
-806 -944 0
-806 -950 0
-806 -956 0
-806 -962 0
-806 -968 0
-806 -974 0
-806 -980 0
-806 -986 0
-806 -992 0
-806 -998 0
-806 -1004 0
-806 -1010 0
-806 -1016 0
-806 -1022 0
-806 -1028 0
-806 -1034 0
-806 -1040 0
-806 -1046 0
-806 -1052 0
-806 -1058 0
-806 -1064 0
-806 -1070 0
-806 -1076 0
-806 -1082 0
-806 -1088 0
-806 -1094 0
-806 -1100 0
-806 -1106 0
-806 -1112 0
-806 -1118 0
-806 -1124 0
-806 -1130 0
-806 -1136 0
-806 -1142 0
-806 -1148 0
-806 -1154 0
-806 -1160 0
-806 -1166 0
-806 -1172 0
-806 -1178 0
-806 -1184 0
-806 -1190 0
-806 -1196 0
-806 -1202 0
-806 -1208 0
-806 -1214 0
-806 -1220 0
-806 -1226 0
-806 -1232 0
-806 -1238 0
-806 -1244 0
-806 -1250 0
-806 -1256 0
-806 -1262 0
-812 -818 0
-812 -824 0
-812 -830 0
-812 -836 0
-812 -842 0
-812 -848 0
-812 -854 0
-812 -860 0
-812 -866 0
-812 -872 0
-812 -878 0
-812 -884 0
-812 -890 0
-812 -896 0
-812 -902 0
-812 -908 0
-812 -914 0
-812 -920 0
-812 -926 0
-812 -932 0
-812 -938 0
-812 -944 0
-812 -950 0
-812 -956 0
-812 -962 0
-812 -968 0
-812 -974 0
-812 -980 0
-812 -986 0
-812 -992 0
-812 -998 0
-812 -1004 0
-812 -1010 0
-812 -1016 0
-812 -1022 0
-812 -1028 0
-812 -1034 0
-812 -1040 0
-812 -1046 0
-812 -1052 0
-812 -1058 0
-812 -1064 0
-812 -1070 0
-812 -1076 0
-812 -1082 0
-812 -1088 0
-812 -1094 0
-812 -1100 0
-812 -1106 0
-812 -1112 0
-812 -1118 0
-812 -1124 0
-812 -1130 0
-812 -1136 0
-812 -1142 0
-812 -1148 0
-812 -1154 0
-812 -1160 0
-812 -1166 0
-812 -1172 0
-812 -1178 0
-812 -1184 0
-812 -1190 0
-812 -1196 0
-812 -1202 0
-812 -1208 0
-812 -1214 0
-812 -1220 0
-812 -1226 0
-812 -1232 0
-812 -1238 0
-812 -1244 0
-812 -1250 0
-812 -1256 0
-812 -1262 0
-818 -824 0
-818 -830 0
-818 -836 0
-818 -842 0
-818 -848 0
-818 -854 0
-818 -860 0
-818 -866 0
-818 -872 0
-818 -878 0
-818 -884 0
-818 -890 0
-818 -896 0
-818 -902 0
-818 -908 0
-818 -914 0
-818 -920 0
-818 -926 0
-818 -932 0
-818 -938 0
-818 -944 0
-818 -950 0
-818 -956 0
-818 -962 0
-818 -968 0
-818 -974 0
-818 -980 0
-818 -986 0
-818 -992 0
-818 -998 0
-818 -1004 0
-818 -1010 0
-818 -1016 0
-818 -1022 0
-818 -1028 0
-818 -1034 0
-818 -1040 0
-818 -1046 0
-818 -1052 0
-818 -1058 0
-818 -1064 0
-818 -1070 0
-818 -1076 0
-818 -1082 0
-818 -1088 0
-818 -1094 0
-818 -1100 0
-818 -1106 0
-818 -1112 0
-818 -1118 0
-818 -1124 0
-818 -1130 0
-818 -1136 0
-818 -1142 0
-818 -1148 0
-818 -1154 0
-818 -1160 0
-818 -1166 0
-818 -1172 0
-818 -1178 0
-818 -1184 0
-818 -1190 0
-818 -1196 0
-818 -1202 0
-818 -1208 0
-818 -1214 0
-818 -1220 0
-818 -1226 0
-818 -1232 0
-818 -1238 0
-818 -1244 0
-818 -1250 0
-818 -1256 0
-818 -1262 0
-824 -830 0
-824 -836 0
-824 -842 0
-824 -848 0
-824 -854 0
-824 -860 0
-824 -866 0
-824 -872 0
-824 -878 0
-824 -884 0
-824 -890 0
-824 -896 0
-824 -902 0
-824 -908 0
-824 -914 0
-824 -920 0
-824 -926 0
-824 -932 0
-824 -938 0
-824 -944 0
-824 -950 0
-824 -956 0
-824 -962 0
-824 -968 0
-824 -974 0
-824 -980 0
-824 -986 0
-824 -992 0
-824 -998 0
-824 -1004 0
-824 -1010 0
-824 -1016 0
-824 -1022 0
-824 -1028 0
-824 -1034 0
-824 -1040 0
-824 -1046 0
-824 -1052 0
-824 -1058 0
-824 -1064 0
-824 -1070 0
-824 -1076 0
-824 -1082 0
-824 -1088 0
-824 -1094 0
-824 -1100 0
-824 -1106 0
-824 -1112 0
-824 -1118 0
-824 -1124 0
-824 -1130 0
-824 -1136 0
-824 -1142 0
-824 -1148 0
-824 -1154 0
-824 -1160 0
-824 -1166 0
-824 -1172 0
-824 -1178 0
-824 -1184 0
-824 -1190 0
-824 -1196 0
-824 -1202 0
-824 -1208 0
-824 -1214 0
-824 -1220 0
-824 -1226 0
-824 -1232 0
-824 -1238 0
-824 -1244 0
-824 -1250 0
-824 -1256 0
-824 -1262 0
-830 -836 0
-830 -842 0
-830 -848 0
-830 -854 0
-830 -860 0
-830 -866 0
-830 -872 0
-830 -878 0
-830 -884 0
-830 -890 0
-830 -896 0
-830 -902 0
-830 -908 0
-830 -914 0
-830 -920 0
-830 -926 0
-830 -932 0
-830 -938 0
-830 -944 0
-830 -950 0
-830 -956 0
-830 -962 0
-830 -968 0
-830 -974 0
-830 -980 0
-830 -986 0
-830 -992 0
-830 -998 0
-830 -1004 0
-830 -1010 0
-830 -1016 0
-830 -1022 0
-830 -1028 0
-830 -1034 0
-830 -1040 0
-830 -1046 0
-830 -1052 0
-830 -1058 0
-830 -1064 0
-830 -1070 0
-830 -1076 0
-830 -1082 0
-830 -1088 0
-830 -1094 0
-830 -1100 0
-830 -1106 0
-830 -1112 0
-830 -1118 0
-830 -1124 0
-830 -1130 0
-830 -1136 0
-830 -1142 0
-830 -1148 0
-830 -1154 0
-830 -1160 0
-830 -1166 0
-830 -1172 0
-830 -1178 0
-830 -1184 0
-830 -1190 0
-830 -1196 0
-830 -1202 0
-830 -1208 0
-830 -1214 0
-830 -1220 0
-830 -1226 0
-830 -1232 0
-830 -1238 0
-830 -1244 0
-830 -1250 0
-830 -1256 0
-830 -1262 0
-836 -842 0
-836 -848 0
-836 -854 0
-836 -860 0
-836 -866 0
-836 -872 0
-836 -878 0
-836 -884 0
-836 -890 0
-836 -896 0
-836 -902 0
-836 -908 0
-836 -914 0
-836 -920 0
-836 -926 0
-836 -932 0
-836 -938 0
-836 -944 0
-836 -950 0
-836 -956 0
-836 -962 0
-836 -968 0
-836 -974 0
-836 -980 0
-836 -986 0
-836 -992 0
-836 -998 0
-836 -1004 0
-836 -1010 0
-836 -1016 0
-836 -1022 0
-836 -1028 0
-836 -1034 0
-836 -1040 0
-836 -1046 0
-836 -1052 0
-836 -1058 0
-836 -1064 0
-836 -1070 0
-836 -1076 0
-836 -1082 0
-836 -1088 0
-836 -1094 0
-836 -1100 0
-836 -1106 0
-836 -1112 0
-836 -1118 0
-836 -1124 0
-836 -1130 0
-836 -1136 0
-836 -1142 0
-836 -1148 0
-836 -1154 0
-836 -1160 0
-836 -1166 0
-836 -1172 0
-836 -1178 0
-836 -1184 0
-836 -1190 0
-836 -1196 0
-836 -1202 0
-836 -1208 0
-836 -1214 0
-836 -1220 0
-836 -1226 0
-836 -1232 0
-836 -1238 0
-836 -1244 0
-836 -1250 0
-836 -1256 0
-836 -1262 0
-842 -848 0
-842 -854 0
-842 -860 0
-842 -866 0
-842 -872 0
-842 -878 0
-842 -884 0
-842 -890 0
-842 -896 0
-842 -902 0
-842 -908 0
-842 -914 0
-842 -920 0
-842 -926 0
-842 -932 0
-842 -938 0
-842 -944 0
-842 -950 0
-842 -956 0
-842 -962 0
-842 -968 0
-842 -974 0
-842 -980 0
-842 -986 0
-842 -992 0
-842 -998 0
-842 -1004 0
-842 -1010 0
-842 -1016 0
-842 -1022 0
-842 -1028 0
-842 -1034 0
-842 -1040 0
-842 -1046 0
-842 -1052 0
-842 -1058 0
-842 -1064 0
-842 -1070 0
-842 -1076 0
-842 -1082 0
-842 -1088 0
-842 -1094 0
-842 -1100 0
-842 -1106 0
-842 -1112 0
-842 -1118 0
-842 -1124 0
-842 -1130 0
-842 -1136 0
-842 -1142 0
-842 -1148 0
-842 -1154 0
-842 -1160 0
-842 -1166 0
-842 -1172 0
-842 -1178 0
-842 -1184 0
-842 -1190 0
-842 -1196 0
-842 -1202 0
-842 -1208 0
-842 -1214 0
-842 -1220 0
-842 -1226 0
-842 -1232 0
-842 -1238 0
-842 -1244 0
-842 -1250 0
-842 -1256 0
-842 -1262 0
-848 -854 0
-848 -860 0
-848 -866 0
-848 -872 0
-848 -878 0
-848 -884 0
-848 -890 0
-848 -896 0
-848 -902 0
-848 -908 0
-848 -914 0
-848 -920 0
-848 -926 0
-848 -932 0
-848 -938 0
-848 -944 0
-848 -950 0
-848 -956 0
-848 -962 0
-848 -968 0
-848 -974 0
-848 -980 0
-848 -986 0
-848 -992 0
-848 -998 0
-848 -1004 0
-848 -1010 0
-848 -1016 0
-848 -1022 0
-848 -1028 0
-848 -1034 0
-848 -1040 0
-848 -1046 0
-848 -1052 0
-848 -1058 0
-848 -1064 0
-848 -1070 0
-848 -1076 0
-848 -1082 0
-848 -1088 0
-848 -1094 0
-848 -1100 0
-848 -1106 0
-848 -1112 0
-848 -1118 0
-848 -1124 0
-848 -1130 0
-848 -1136 0
-848 -1142 0
-848 -1148 0
-848 -1154 0
-848 -1160 0
-848 -1166 0
-848 -1172 0
-848 -1178 0
-848 -1184 0
-848 -1190 0
-848 -1196 0
-848 -1202 0
-848 -1208 0
-848 -1214 0
-848 -1220 0
-848 -1226 0
-848 -1232 0
-848 -1238 0
-848 -1244 0
-848 -1250 0
-848 -1256 0
-848 -1262 0
-854 -860 0
-854 -866 0
-854 -872 0
-854 -878 0
-854 -884 0
-854 -890 0
-854 -896 0
-854 -902 0
-854 -908 0
-854 -914 0
-854 -920 0
-854 -926 0
-854 -932 0
-854 -938 0
-854 -944 0
-854 -950 0
-854 -956 0
-854 -962 0
-854 -968 0
-854 -974 0
-854 -980 0
-854 -986 0
-854 -992 0
-854 -998 0
-854 -1004 0
-854 -1010 0
-854 -1016 0
-854 -1022 0
-854 -1028 0
-854 -1034 0
-854 -1040 0
-854 -1046 0
-854 -1052 0
-854 -1058 0
-854 -1064 0
-854 -1070 0
-854 -1076 0
-854 -1082 0
-854 -1088 0
-854 -1094 0
-854 -1100 0
-854 -1106 0
-854 -1112 0
-854 -1118 0
-854 -1124 0
-854 -1130 0
-854 -1136 0
-854 -1142 0
-854 -1148 0
-854 -1154 0
-854 -1160 0
-854 -1166 0
-854 -1172 0
-854 -1178 0
-854 -1184 0
-854 -1190 0
-854 -1196 0
-854 -1202 0
-854 -1208 0
-854 -1214 0
-854 -1220 0
-854 -1226 0
-854 -1232 0
-854 -1238 0
-854 -1244 0
-854 -1250 0
-854 -1256 0
-854 -1262 0
-860 -866 0
-860 -872 0
-860 -878 0
-860 -884 0
-860 -890 0
-860 -896 0
-860 -902 0
-860 -908 0
-860 -914 0
-860 -920 0
-860 -926 0
-860 -932 0
-860 -938 0
-860 -944 0
-860 -950 0
-860 -956 0
-860 -962 0
-860 -968 0
-860 -974 0
-860 -980 0
-860 -986 0
-860 -992 0
-860 -998 0
-860 -1004 0
-860 -1010 0
-860 -1016 0
-860 -1022 0
-860 -1028 0
-860 -1034 0
-860 -1040 0
-860 -1046 0
-860 -1052 0
-860 -1058 0
-860 -1064 0
-860 -1070 0
-860 -1076 0
-860 -1082 0
-860 -1088 0
-860 -1094 0
-860 -1100 0
-860 -1106 0
-860 -1112 0
-860 -1118 0
-860 -1124 0
-860 -1130 0
-860 -1136 0
-860 -1142 0
-860 -1148 0
-860 -1154 0
-860 -1160 0
-860 -1166 0
-860 -1172 0
-860 -1178 0
-860 -1184 0
-860 -1190 0
-860 -1196 0
-860 -1202 0
-860 -1208 0
-860 -1214 0
-860 -1220 0
-860 -1226 0
-860 -1232 0
-860 -1238 0
-860 -1244 0
-860 -1250 0
-860 -1256 0
-860 -1262 0
-866 -872 0
-866 -878 0
-866 -884 0
-866 -890 0
-866 -896 0
-866 -902 0
-866 -908 0
-866 -914 0
-866 -920 0
-866 -926 0
-866 -932 0
-866 -938 0
-866 -944 0
-866 -950 0
-866 -956 0
-866 -962 0
-866 -968 0
-866 -974 0
-866 -980 0
-866 -986 0
-866 -992 0
-866 -998 0
-866 -1004 0
-866 -1010 0
-866 -1016 0
-866 -1022 0
-866 -1028 0
-866 -1034 0
-866 -1040 0
-866 -1046 0
-866 -1052 0
-866 -1058 0
-866 -1064 0
-866 -1070 0
-866 -1076 0
-866 -1082 0
-866 -1088 0
-866 -1094 0
-866 -1100 0
-866 -1106 0
-866 -1112 0
-866 -1118 0
-866 -1124 0
-866 -1130 0
-866 -1136 0
-866 -1142 0
-866 -1148 0
-866 -1154 0
-866 -1160 0
-866 -1166 0
-866 -1172 0
-866 -1178 0
-866 -1184 0
-866 -1190 0
-866 -1196 0
-866 -1202 0
-866 -1208 0
-866 -1214 0
-866 -1220 0
-866 -1226 0
-866 -1232 0
-866 -1238 0
-866 -1244 0
-866 -1250 0
-866 -1256 0
-866 -1262 0
-872 -878 0
-872 -884 0
-872 -890 0
-872 -896 0
-872 -902 0
-872 -908 0
-872 -914 0
-872 -920 0
-872 -926 0
-872 -932 0
-872 -938 0
-872 -944 0
-872 -950 0
-872 -956 0
-872 -962 0
-872 -968 0
-872 -974 0
-872 -980 0
-872 -986 0
-872 -992 0
-872 -998 0
-872 -1004 0
-872 -1010 0
-872 -1016 0
-872 -1022 0
-872 -1028 0
-872 -1034 0
-872 -1040 0
-872 -1046 0
-872 -1052 0
-872 -1058 0
-872 -1064 0
-872 -1070 0
-872 -1076 0
-872 -1082 0
-872 -1088 0
-872 -1094 0
-872 -1100 0
-872 -1106 0
-872 -1112 0
-872 -1118 0
-872 -1124 0
-872 -1130 0
-872 -1136 0
-872 -1142 0
-872 -1148 0
-872 -1154 0
-872 -1160 0
-872 -1166 0
-872 -1172 0
-872 -1178 0
-872 -1184 0
-872 -1190 0
-872 -1196 0
-872 -1202 0
-872 -1208 0
-872 -1214 0
-872 -1220 0
-872 -1226 0
-872 -1232 0
-872 -1238 0
-872 -1244 0
-872 -1250 0
-872 -1256 0
-872 -1262 0
-878 -884 0
-878 -890 0
-878 -896 0
-878 -902 0
-878 -908 0
-878 -914 0
-878 -920 0
-878 -926 0
-878 -932 0
-878 -938 0
-878 -944 0
-878 -950 0
-878 -956 0
-878 -962 0
-878 -968 0
-878 -974 0
-878 -980 0
-878 -986 0
-878 -992 0
-878 -998 0
-878 -1004 0
-878 -1010 0
-878 -1016 0
-878 -1022 0
-878 -1028 0
-878 -1034 0
-878 -1040 0
-878 -1046 0
-878 -1052 0
-878 -1058 0
-878 -1064 0
-878 -1070 0
-878 -1076 0
-878 -1082 0
-878 -1088 0
-878 -1094 0
-878 -1100 0
-878 -1106 0
-878 -1112 0
-878 -1118 0
-878 -1124 0
-878 -1130 0
-878 -1136 0
-878 -1142 0
-878 -1148 0
-878 -1154 0
-878 -1160 0
-878 -1166 0
-878 -1172 0
-878 -1178 0
-878 -1184 0
-878 -1190 0
-878 -1196 0
-878 -1202 0
-878 -1208 0
-878 -1214 0
-878 -1220 0
-878 -1226 0
-878 -1232 0
-878 -1238 0
-878 -1244 0
-878 -1250 0
-878 -1256 0
-878 -1262 0
-884 -890 0
-884 -896 0
-884 -902 0
-884 -908 0
-884 -914 0
-884 -920 0
-884 -926 0
-884 -932 0
-884 -938 0
-884 -944 0
-884 -950 0
-884 -956 0
-884 -962 0
-884 -968 0
-884 -974 0
-884 -980 0
-884 -986 0
-884 -992 0
-884 -998 0
-884 -1004 0
-884 -1010 0
-884 -1016 0
-884 -1022 0
-884 -1028 0
-884 -1034 0
-884 -1040 0
-884 -1046 0
-884 -1052 0
-884 -1058 0
-884 -1064 0
-884 -1070 0
-884 -1076 0
-884 -1082 0
-884 -1088 0
-884 -1094 0
-884 -1100 0
-884 -1106 0
-884 -1112 0
-884 -1118 0
-884 -1124 0
-884 -1130 0
-884 -1136 0
-884 -1142 0
-884 -1148 0
-884 -1154 0
-884 -1160 0
-884 -1166 0
-884 -1172 0
-884 -1178 0
-884 -1184 0
-884 -1190 0
-884 -1196 0
-884 -1202 0
-884 -1208 0
-884 -1214 0
-884 -1220 0
-884 -1226 0
-884 -1232 0
-884 -1238 0
-884 -1244 0
-884 -1250 0
-884 -1256 0
-884 -1262 0
-890 -896 0
-890 -902 0
-890 -908 0
-890 -914 0
-890 -920 0
-890 -926 0
-890 -932 0
-890 -938 0
-890 -944 0
-890 -950 0
-890 -956 0
-890 -962 0
-890 -968 0
-890 -974 0
-890 -980 0
-890 -986 0
-890 -992 0
-890 -998 0
-890 -1004 0
-890 -1010 0
-890 -1016 0
-890 -1022 0
-890 -1028 0
-890 -1034 0
-890 -1040 0
-890 -1046 0
-890 -1052 0
-890 -1058 0
-890 -1064 0
-890 -1070 0
-890 -1076 0
-890 -1082 0
-890 -1088 0
-890 -1094 0
-890 -1100 0
-890 -1106 0
-890 -1112 0
-890 -1118 0
-890 -1124 0
-890 -1130 0
-890 -1136 0
-890 -1142 0
-890 -1148 0
-890 -1154 0
-890 -1160 0
-890 -1166 0
-890 -1172 0
-890 -1178 0
-890 -1184 0
-890 -1190 0
-890 -1196 0
-890 -1202 0
-890 -1208 0
-890 -1214 0
-890 -1220 0
-890 -1226 0
-890 -1232 0
-890 -1238 0
-890 -1244 0
-890 -1250 0
-890 -1256 0
-890 -1262 0
-896 -902 0
-896 -908 0
-896 -914 0
-896 -920 0
-896 -926 0
-896 -932 0
-896 -938 0
-896 -944 0
-896 -950 0
-896 -956 0
-896 -962 0
-896 -968 0
-896 -974 0
-896 -980 0
-896 -986 0
-896 -992 0
-896 -998 0
-896 -1004 0
-896 -1010 0
-896 -1016 0
-896 -1022 0
-896 -1028 0
-896 -1034 0
-896 -1040 0
-896 -1046 0
-896 -1052 0
-896 -1058 0
-896 -1064 0
-896 -1070 0
-896 -1076 0
-896 -1082 0
-896 -1088 0
-896 -1094 0
-896 -1100 0
-896 -1106 0
-896 -1112 0
-896 -1118 0
-896 -1124 0
-896 -1130 0
-896 -1136 0
-896 -1142 0
-896 -1148 0
-896 -1154 0
-896 -1160 0
-896 -1166 0
-896 -1172 0
-896 -1178 0
-896 -1184 0
-896 -1190 0
-896 -1196 0
-896 -1202 0
-896 -1208 0
-896 -1214 0
-896 -1220 0
-896 -1226 0
-896 -1232 0
-896 -1238 0
-896 -1244 0
-896 -1250 0
-896 -1256 0
-896 -1262 0
-902 -908 0
-902 -914 0
-902 -920 0
-902 -926 0
-902 -932 0
-902 -938 0
-902 -944 0
-902 -950 0
-902 -956 0
-902 -962 0
-902 -968 0
-902 -974 0
-902 -980 0
-902 -986 0
-902 -992 0
-902 -998 0
-902 -1004 0
-902 -1010 0
-902 -1016 0
-902 -1022 0
-902 -1028 0
-902 -1034 0
-902 -1040 0
-902 -1046 0
-902 -1052 0
-902 -1058 0
-902 -1064 0
-902 -1070 0
-902 -1076 0
-902 -1082 0
-902 -1088 0
-902 -1094 0
-902 -1100 0
-902 -1106 0
-902 -1112 0
-902 -1118 0
-902 -1124 0
-902 -1130 0
-902 -1136 0
-902 -1142 0
-902 -1148 0
-902 -1154 0
-902 -1160 0
-902 -1166 0
-902 -1172 0
-902 -1178 0
-902 -1184 0
-902 -1190 0
-902 -1196 0
-902 -1202 0
-902 -1208 0
-902 -1214 0
-902 -1220 0
-902 -1226 0
-902 -1232 0
-902 -1238 0
-902 -1244 0
-902 -1250 0
-902 -1256 0
-902 -1262 0
-908 -914 0
-908 -920 0
-908 -926 0
-908 -932 0
-908 -938 0
-908 -944 0
-908 -950 0
-908 -956 0
-908 -962 0
-908 -968 0
-908 -974 0
-908 -980 0
-908 -986 0
-908 -992 0
-908 -998 0
-908 -1004 0
-908 -1010 0
-908 -1016 0
-908 -1022 0
-908 -1028 0
-908 -1034 0
-908 -1040 0
-908 -1046 0
-908 -1052 0
-908 -1058 0
-908 -1064 0
-908 -1070 0
-908 -1076 0
-908 -1082 0
-908 -1088 0
-908 -1094 0
-908 -1100 0
-908 -1106 0
-908 -1112 0
-908 -1118 0
-908 -1124 0
-908 -1130 0
-908 -1136 0
-908 -1142 0
-908 -1148 0
-908 -1154 0
-908 -1160 0
-908 -1166 0
-908 -1172 0
-908 -1178 0
-908 -1184 0
-908 -1190 0
-908 -1196 0
-908 -1202 0
-908 -1208 0
-908 -1214 0
-908 -1220 0
-908 -1226 0
-908 -1232 0
-908 -1238 0
-908 -1244 0
-908 -1250 0
-908 -1256 0
-908 -1262 0
-914 -920 0
-914 -926 0
-914 -932 0
-914 -938 0
-914 -944 0
-914 -950 0
-914 -956 0
-914 -962 0
-914 -968 0
-914 -974 0
-914 -980 0
-914 -986 0
-914 -992 0
-914 -998 0
-914 -1004 0
-914 -1010 0
-914 -1016 0
-914 -1022 0
-914 -1028 0
-914 -1034 0
-914 -1040 0
-914 -1046 0
-914 -1052 0
-914 -1058 0
-914 -1064 0
-914 -1070 0
-914 -1076 0
-914 -1082 0
-914 -1088 0
-914 -1094 0
-914 -1100 0
-914 -1106 0
-914 -1112 0
-914 -1118 0
-914 -1124 0
-914 -1130 0
-914 -1136 0
-914 -1142 0
-914 -1148 0
-914 -1154 0
-914 -1160 0
-914 -1166 0
-914 -1172 0
-914 -1178 0
-914 -1184 0
-914 -1190 0
-914 -1196 0
-914 -1202 0
-914 -1208 0
-914 -1214 0
-914 -1220 0
-914 -1226 0
-914 -1232 0
-914 -1238 0
-914 -1244 0
-914 -1250 0
-914 -1256 0
-914 -1262 0
-920 -926 0
-920 -932 0
-920 -938 0
-920 -944 0
-920 -950 0
-920 -956 0
-920 -962 0
-920 -968 0
-920 -974 0
-920 -980 0
-920 -986 0
-920 -992 0
-920 -998 0
-920 -1004 0
-920 -1010 0
-920 -1016 0
-920 -1022 0
-920 -1028 0
-920 -1034 0
-920 -1040 0
-920 -1046 0
-920 -1052 0
-920 -1058 0
-920 -1064 0
-920 -1070 0
-920 -1076 0
-920 -1082 0
-920 -1088 0
-920 -1094 0
-920 -1100 0
-920 -1106 0
-920 -1112 0
-920 -1118 0
-920 -1124 0
-920 -1130 0
-920 -1136 0
-920 -1142 0
-920 -1148 0
-920 -1154 0
-920 -1160 0
-920 -1166 0
-920 -1172 0
-920 -1178 0
-920 -1184 0
-920 -1190 0
-920 -1196 0
-920 -1202 0
-920 -1208 0
-920 -1214 0
-920 -1220 0
-920 -1226 0
-920 -1232 0
-920 -1238 0
-920 -1244 0
-920 -1250 0
-920 -1256 0
-920 -1262 0
-926 -932 0
-926 -938 0
-926 -944 0
-926 -950 0
-926 -956 0
-926 -962 0
-926 -968 0
-926 -974 0
-926 -980 0
-926 -986 0
-926 -992 0
-926 -998 0
-926 -1004 0
-926 -1010 0
-926 -1016 0
-926 -1022 0
-926 -1028 0
-926 -1034 0
-926 -1040 0
-926 -1046 0
-926 -1052 0
-926 -1058 0
-926 -1064 0
-926 -1070 0
-926 -1076 0
-926 -1082 0
-926 -1088 0
-926 -1094 0
-926 -1100 0
-926 -1106 0
-926 -1112 0
-926 -1118 0
-926 -1124 0
-926 -1130 0
-926 -1136 0
-926 -1142 0
-926 -1148 0
-926 -1154 0
-926 -1160 0
-926 -1166 0
-926 -1172 0
-926 -1178 0
-926 -1184 0
-926 -1190 0
-926 -1196 0
-926 -1202 0
-926 -1208 0
-926 -1214 0
-926 -1220 0
-926 -1226 0
-926 -1232 0
-926 -1238 0
-926 -1244 0
-926 -1250 0
-926 -1256 0
-926 -1262 0
-932 -938 0
-932 -944 0
-932 -950 0
-932 -956 0
-932 -962 0
-932 -968 0
-932 -974 0
-932 -980 0
-932 -986 0
-932 -992 0
-932 -998 0
-932 -1004 0
-932 -1010 0
-932 -1016 0
-932 -1022 0
-932 -1028 0
-932 -1034 0
-932 -1040 0
-932 -1046 0
-932 -1052 0
-932 -1058 0
-932 -1064 0
-932 -1070 0
-932 -1076 0
-932 -1082 0
-932 -1088 0
-932 -1094 0
-932 -1100 0
-932 -1106 0
-932 -1112 0
-932 -1118 0
-932 -1124 0
-932 -1130 0
-932 -1136 0
-932 -1142 0
-932 -1148 0
-932 -1154 0
-932 -1160 0
-932 -1166 0
-932 -1172 0
-932 -1178 0
-932 -1184 0
-932 -1190 0
-932 -1196 0
-932 -1202 0
-932 -1208 0
-932 -1214 0
-932 -1220 0
-932 -1226 0
-932 -1232 0
-932 -1238 0
-932 -1244 0
-932 -1250 0
-932 -1256 0
-932 -1262 0
-938 -944 0
-938 -950 0
-938 -956 0
-938 -962 0
-938 -968 0
-938 -974 0
-938 -980 0
-938 -986 0
-938 -992 0
-938 -998 0
-938 -1004 0
-938 -1010 0
-938 -1016 0
-938 -1022 0
-938 -1028 0
-938 -1034 0
-938 -1040 0
-938 -1046 0
-938 -1052 0
-938 -1058 0
-938 -1064 0
-938 -1070 0
-938 -1076 0
-938 -1082 0
-938 -1088 0
-938 -1094 0
-938 -1100 0
-938 -1106 0
-938 -1112 0
-938 -1118 0
-938 -1124 0
-938 -1130 0
-938 -1136 0
-938 -1142 0
-938 -1148 0
-938 -1154 0
-938 -1160 0
-938 -1166 0
-938 -1172 0
-938 -1178 0
-938 -1184 0
-938 -1190 0
-938 -1196 0
-938 -1202 0
-938 -1208 0
-938 -1214 0
-938 -1220 0
-938 -1226 0
-938 -1232 0
-938 -1238 0
-938 -1244 0
-938 -1250 0
-938 -1256 0
-938 -1262 0
-944 -950 0
-944 -956 0
-944 -962 0
-944 -968 0
-944 -974 0
-944 -980 0
-944 -986 0
-944 -992 0
-944 -998 0
-944 -1004 0
-944 -1010 0
-944 -1016 0
-944 -1022 0
-944 -1028 0
-944 -1034 0
-944 -1040 0
-944 -1046 0
-944 -1052 0
-944 -1058 0
-944 -1064 0
-944 -1070 0
-944 -1076 0
-944 -1082 0
-944 -1088 0
-944 -1094 0
-944 -1100 0
-944 -1106 0
-944 -1112 0
-944 -1118 0
-944 -1124 0
-944 -1130 0
-944 -1136 0
-944 -1142 0
-944 -1148 0
-944 -1154 0
-944 -1160 0
-944 -1166 0
-944 -1172 0
-944 -1178 0
-944 -1184 0
-944 -1190 0
-944 -1196 0
-944 -1202 0
-944 -1208 0
-944 -1214 0
-944 -1220 0
-944 -1226 0
-944 -1232 0
-944 -1238 0
-944 -1244 0
-944 -1250 0
-944 -1256 0
-944 -1262 0
-950 -956 0
-950 -962 0
-950 -968 0
-950 -974 0
-950 -980 0
-950 -986 0
-950 -992 0
-950 -998 0
-950 -1004 0
-950 -1010 0
-950 -1016 0
-950 -1022 0
-950 -1028 0
-950 -1034 0
-950 -1040 0
-950 -1046 0
-950 -1052 0
-950 -1058 0
-950 -1064 0
-950 -1070 0
-950 -1076 0
-950 -1082 0
-950 -1088 0
-950 -1094 0
-950 -1100 0
-950 -1106 0
-950 -1112 0
-950 -1118 0
-950 -1124 0
-950 -1130 0
-950 -1136 0
-950 -1142 0
-950 -1148 0
-950 -1154 0
-950 -1160 0
-950 -1166 0
-950 -1172 0
-950 -1178 0
-950 -1184 0
-950 -1190 0
-950 -1196 0
-950 -1202 0
-950 -1208 0
-950 -1214 0
-950 -1220 0
-950 -1226 0
-950 -1232 0
-950 -1238 0
-950 -1244 0
-950 -1250 0
-950 -1256 0
-950 -1262 0
-956 -962 0
-956 -968 0
-956 -974 0
-956 -980 0
-956 -986 0
-956 -992 0
-956 -998 0
-956 -1004 0
-956 -1010 0
-956 -1016 0
-956 -1022 0
-956 -1028 0
-956 -1034 0
-956 -1040 0
-956 -1046 0
-956 -1052 0
-956 -1058 0
-956 -1064 0
-956 -1070 0
-956 -1076 0
-956 -1082 0
-956 -1088 0
-956 -1094 0
-956 -1100 0
-956 -1106 0
-956 -1112 0
-956 -1118 0
-956 -1124 0
-956 -1130 0
-956 -1136 0
-956 -1142 0
-956 -1148 0
-956 -1154 0
-956 -1160 0
-956 -1166 0
-956 -1172 0
-956 -1178 0
-956 -1184 0
-956 -1190 0
-956 -1196 0
-956 -1202 0
-956 -1208 0
-956 -1214 0
-956 -1220 0
-956 -1226 0
-956 -1232 0
-956 -1238 0
-956 -1244 0
-956 -1250 0
-956 -1256 0
-956 -1262 0
-962 -968 0
-962 -974 0
-962 -980 0
-962 -986 0
-962 -992 0
-962 -998 0
-962 -1004 0
-962 -1010 0
-962 -1016 0
-962 -1022 0
-962 -1028 0
-962 -1034 0
-962 -1040 0
-962 -1046 0
-962 -1052 0
-962 -1058 0
-962 -1064 0
-962 -1070 0
-962 -1076 0
-962 -1082 0
-962 -1088 0
-962 -1094 0
-962 -1100 0
-962 -1106 0
-962 -1112 0
-962 -1118 0
-962 -1124 0
-962 -1130 0
-962 -1136 0
-962 -1142 0
-962 -1148 0
-962 -1154 0
-962 -1160 0
-962 -1166 0
-962 -1172 0
-962 -1178 0
-962 -1184 0
-962 -1190 0
-962 -1196 0
-962 -1202 0
-962 -1208 0
-962 -1214 0
-962 -1220 0
-962 -1226 0
-962 -1232 0
-962 -1238 0
-962 -1244 0
-962 -1250 0
-962 -1256 0
-962 -1262 0
-968 -974 0
-968 -980 0
-968 -986 0
-968 -992 0
-968 -998 0
-968 -1004 0
-968 -1010 0
-968 -1016 0
-968 -1022 0
-968 -1028 0
-968 -1034 0
-968 -1040 0
-968 -1046 0
-968 -1052 0
-968 -1058 0
-968 -1064 0
-968 -1070 0
-968 -1076 0
-968 -1082 0
-968 -1088 0
-968 -1094 0
-968 -1100 0
-968 -1106 0
-968 -1112 0
-968 -1118 0
-968 -1124 0
-968 -1130 0
-968 -1136 0
-968 -1142 0
-968 -1148 0
-968 -1154 0
-968 -1160 0
-968 -1166 0
-968 -1172 0
-968 -1178 0
-968 -1184 0
-968 -1190 0
-968 -1196 0
-968 -1202 0
-968 -1208 0
-968 -1214 0
-968 -1220 0
-968 -1226 0
-968 -1232 0
-968 -1238 0
-968 -1244 0
-968 -1250 0
-968 -1256 0
-968 -1262 0
-974 -980 0
-974 -986 0
-974 -992 0
-974 -998 0
-974 -1004 0
-974 -1010 0
-974 -1016 0
-974 -1022 0
-974 -1028 0
-974 -1034 0
-974 -1040 0
-974 -1046 0
-974 -1052 0
-974 -1058 0
-974 -1064 0
-974 -1070 0
-974 -1076 0
-974 -1082 0
-974 -1088 0
-974 -1094 0
-974 -1100 0
-974 -1106 0
-974 -1112 0
-974 -1118 0
-974 -1124 0
-974 -1130 0
-974 -1136 0
-974 -1142 0
-974 -1148 0
-974 -1154 0
-974 -1160 0
-974 -1166 0
-974 -1172 0
-974 -1178 0
-974 -1184 0
-974 -1190 0
-974 -1196 0
-974 -1202 0
-974 -1208 0
-974 -1214 0
-974 -1220 0
-974 -1226 0
-974 -1232 0
-974 -1238 0
-974 -1244 0
-974 -1250 0
-974 -1256 0
-974 -1262 0
-980 -986 0
-980 -992 0
-980 -998 0
-980 -1004 0
-980 -1010 0
-980 -1016 0
-980 -1022 0
-980 -1028 0
-980 -1034 0
-980 -1040 0
-980 -1046 0
-980 -1052 0
-980 -1058 0
-980 -1064 0
-980 -1070 0
-980 -1076 0
-980 -1082 0
-980 -1088 0
-980 -1094 0
-980 -1100 0
-980 -1106 0
-980 -1112 0
-980 -1118 0
-980 -1124 0
-980 -1130 0
-980 -1136 0
-980 -1142 0
-980 -1148 0
-980 -1154 0
-980 -1160 0
-980 -1166 0
-980 -1172 0
-980 -1178 0
-980 -1184 0
-980 -1190 0
-980 -1196 0
-980 -1202 0
-980 -1208 0
-980 -1214 0
-980 -1220 0
-980 -1226 0
-980 -1232 0
-980 -1238 0
-980 -1244 0
-980 -1250 0
-980 -1256 0
-980 -1262 0
-986 -992 0
-986 -998 0
-986 -1004 0
-986 -1010 0
-986 -1016 0
-986 -1022 0
-986 -1028 0
-986 -1034 0
-986 -1040 0
-986 -1046 0
-986 -1052 0
-986 -1058 0
-986 -1064 0
-986 -1070 0
-986 -1076 0
-986 -1082 0
-986 -1088 0
-986 -1094 0
-986 -1100 0
-986 -1106 0
-986 -1112 0
-986 -1118 0
-986 -1124 0
-986 -1130 0
-986 -1136 0
-986 -1142 0
-986 -1148 0
-986 -1154 0
-986 -1160 0
-986 -1166 0
-986 -1172 0
-986 -1178 0
-986 -1184 0
-986 -1190 0
-986 -1196 0
-986 -1202 0
-986 -1208 0
-986 -1214 0
-986 -1220 0
-986 -1226 0
-986 -1232 0
-986 -1238 0
-986 -1244 0
-986 -1250 0
-986 -1256 0
-986 -1262 0
-992 -998 0
-992 -1004 0
-992 -1010 0
-992 -1016 0
-992 -1022 0
-992 -1028 0
-992 -1034 0
-992 -1040 0
-992 -1046 0
-992 -1052 0
-992 -1058 0
-992 -1064 0
-992 -1070 0
-992 -1076 0
-992 -1082 0
-992 -1088 0
-992 -1094 0
-992 -1100 0
-992 -1106 0
-992 -1112 0
-992 -1118 0
-992 -1124 0
-992 -1130 0
-992 -1136 0
-992 -1142 0
-992 -1148 0
-992 -1154 0
-992 -1160 0
-992 -1166 0
-992 -1172 0
-992 -1178 0
-992 -1184 0
-992 -1190 0
-992 -1196 0
-992 -1202 0
-992 -1208 0
-992 -1214 0
-992 -1220 0
-992 -1226 0
-992 -1232 0
-992 -1238 0
-992 -1244 0
-992 -1250 0
-992 -1256 0
-992 -1262 0
-998 -1004 0
-998 -1010 0
-998 -1016 0
-998 -1022 0
-998 -1028 0
-998 -1034 0
-998 -1040 0
-998 -1046 0
-998 -1052 0
-998 -1058 0
-998 -1064 0
-998 -1070 0
-998 -1076 0
-998 -1082 0
-998 -1088 0
-998 -1094 0
-998 -1100 0
-998 -1106 0
-998 -1112 0
-998 -1118 0
-998 -1124 0
-998 -1130 0
-998 -1136 0
-998 -1142 0
-998 -1148 0
-998 -1154 0
-998 -1160 0
-998 -1166 0
-998 -1172 0
-998 -1178 0
-998 -1184 0
-998 -1190 0
-998 -1196 0
-998 -1202 0
-998 -1208 0
-998 -1214 0
-998 -1220 0
-998 -1226 0
-998 -1232 0
-998 -1238 0
-998 -1244 0
-998 -1250 0
-998 -1256 0
-998 -1262 0
-1004 -1010 0
-1004 -1016 0
-1004 -1022 0
-1004 -1028 0
-1004 -1034 0
-1004 -1040 0
-1004 -1046 0
-1004 -1052 0
-1004 -1058 0
-1004 -1064 0
-1004 -1070 0
-1004 -1076 0
-1004 -1082 0
-1004 -1088 0
-1004 -1094 0
-1004 -1100 0
-1004 -1106 0
-1004 -1112 0
-1004 -1118 0
-1004 -1124 0
-1004 -1130 0
-1004 -1136 0
-1004 -1142 0
-1004 -1148 0
-1004 -1154 0
-1004 -1160 0
-1004 -1166 0
-1004 -1172 0
-1004 -1178 0
-1004 -1184 0
-1004 -1190 0
-1004 -1196 0
-1004 -1202 0
-1004 -1208 0
-1004 -1214 0
-1004 -1220 0
-1004 -1226 0
-1004 -1232 0
-1004 -1238 0
-1004 -1244 0
-1004 -1250 0
-1004 -1256 0
-1004 -1262 0
-1010 -1016 0
-1010 -1022 0
-1010 -1028 0
-1010 -1034 0
-1010 -1040 0
-1010 -1046 0
-1010 -1052 0
-1010 -1058 0
-1010 -1064 0
-1010 -1070 0
-1010 -1076 0
-1010 -1082 0
-1010 -1088 0
-1010 -1094 0
-1010 -1100 0
-1010 -1106 0
-1010 -1112 0
-1010 -1118 0
-1010 -1124 0
-1010 -1130 0
-1010 -1136 0
-1010 -1142 0
-1010 -1148 0
-1010 -1154 0
-1010 -1160 0
-1010 -1166 0
-1010 -1172 0
-1010 -1178 0
-1010 -1184 0
-1010 -1190 0
-1010 -1196 0
-1010 -1202 0
-1010 -1208 0
-1010 -1214 0
-1010 -1220 0
-1010 -1226 0
-1010 -1232 0
-1010 -1238 0
-1010 -1244 0
-1010 -1250 0
-1010 -1256 0
-1010 -1262 0
-1016 -1022 0
-1016 -1028 0
-1016 -1034 0
-1016 -1040 0
-1016 -1046 0
-1016 -1052 0
-1016 -1058 0
-1016 -1064 0
-1016 -1070 0
-1016 -1076 0
-1016 -1082 0
-1016 -1088 0
-1016 -1094 0
-1016 -1100 0
-1016 -1106 0
-1016 -1112 0
-1016 -1118 0
-1016 -1124 0
-1016 -1130 0
-1016 -1136 0
-1016 -1142 0
-1016 -1148 0
-1016 -1154 0
-1016 -1160 0
-1016 -1166 0
-1016 -1172 0
-1016 -1178 0
-1016 -1184 0
-1016 -1190 0
-1016 -1196 0
-1016 -1202 0
-1016 -1208 0
-1016 -1214 0
-1016 -1220 0
-1016 -1226 0
-1016 -1232 0
-1016 -1238 0
-1016 -1244 0
-1016 -1250 0
-1016 -1256 0
-1016 -1262 0
-1022 -1028 0
-1022 -1034 0
-1022 -1040 0
-1022 -1046 0
-1022 -1052 0
-1022 -1058 0
-1022 -1064 0
-1022 -1070 0
-1022 -1076 0
-1022 -1082 0
-1022 -1088 0
-1022 -1094 0
-1022 -1100 0
-1022 -1106 0
-1022 -1112 0
-1022 -1118 0
-1022 -1124 0
-1022 -1130 0
-1022 -1136 0
-1022 -1142 0
-1022 -1148 0
-1022 -1154 0
-1022 -1160 0
-1022 -1166 0
-1022 -1172 0
-1022 -1178 0
-1022 -1184 0
-1022 -1190 0
-1022 -1196 0
-1022 -1202 0
-1022 -1208 0
-1022 -1214 0
-1022 -1220 0
-1022 -1226 0
-1022 -1232 0
-1022 -1238 0
-1022 -1244 0
-1022 -1250 0
-1022 -1256 0
-1022 -1262 0
-1028 -1034 0
-1028 -1040 0
-1028 -1046 0
-1028 -1052 0
-1028 -1058 0
-1028 -1064 0
-1028 -1070 0
-1028 -1076 0
-1028 -1082 0
-1028 -1088 0
-1028 -1094 0
-1028 -1100 0
-1028 -1106 0
-1028 -1112 0
-1028 -1118 0
-1028 -1124 0
-1028 -1130 0
-1028 -1136 0
-1028 -1142 0
-1028 -1148 0
-1028 -1154 0
-1028 -1160 0
-1028 -1166 0
-1028 -1172 0
-1028 -1178 0
-1028 -1184 0
-1028 -1190 0
-1028 -1196 0
-1028 -1202 0
-1028 -1208 0
-1028 -1214 0
-1028 -1220 0
-1028 -1226 0
-1028 -1232 0
-1028 -1238 0
-1028 -1244 0
-1028 -1250 0
-1028 -1256 0
-1028 -1262 0
-1034 -1040 0
-1034 -1046 0
-1034 -1052 0
-1034 -1058 0
-1034 -1064 0
-1034 -1070 0
-1034 -1076 0
-1034 -1082 0
-1034 -1088 0
-1034 -1094 0
-1034 -1100 0
-1034 -1106 0
-1034 -1112 0
-1034 -1118 0
-1034 -1124 0
-1034 -1130 0
-1034 -1136 0
-1034 -1142 0
-1034 -1148 0
-1034 -1154 0
-1034 -1160 0
-1034 -1166 0
-1034 -1172 0
-1034 -1178 0
-1034 -1184 0
-1034 -1190 0
-1034 -1196 0
-1034 -1202 0
-1034 -1208 0
-1034 -1214 0
-1034 -1220 0
-1034 -1226 0
-1034 -1232 0
-1034 -1238 0
-1034 -1244 0
-1034 -1250 0
-1034 -1256 0
-1034 -1262 0
-1040 -1046 0
-1040 -1052 0
-1040 -1058 0
-1040 -1064 0
-1040 -1070 0
-1040 -1076 0
-1040 -1082 0
-1040 -1088 0
-1040 -1094 0
-1040 -1100 0
-1040 -1106 0
-1040 -1112 0
-1040 -1118 0
-1040 -1124 0
-1040 -1130 0
-1040 -1136 0
-1040 -1142 0
-1040 -1148 0
-1040 -1154 0
-1040 -1160 0
-1040 -1166 0
-1040 -1172 0
-1040 -1178 0
-1040 -1184 0
-1040 -1190 0
-1040 -1196 0
-1040 -1202 0
-1040 -1208 0
-1040 -1214 0
-1040 -1220 0
-1040 -1226 0
-1040 -1232 0
-1040 -1238 0
-1040 -1244 0
-1040 -1250 0
-1040 -1256 0
-1040 -1262 0
-1046 -1052 0
-1046 -1058 0
-1046 -1064 0
-1046 -1070 0
-1046 -1076 0
-1046 -1082 0
-1046 -1088 0
-1046 -1094 0
-1046 -1100 0
-1046 -1106 0
-1046 -1112 0
-1046 -1118 0
-1046 -1124 0
-1046 -1130 0
-1046 -1136 0
-1046 -1142 0
-1046 -1148 0
-1046 -1154 0
-1046 -1160 0
-1046 -1166 0
-1046 -1172 0
-1046 -1178 0
-1046 -1184 0
-1046 -1190 0
-1046 -1196 0
-1046 -1202 0
-1046 -1208 0
-1046 -1214 0
-1046 -1220 0
-1046 -1226 0
-1046 -1232 0
-1046 -1238 0
-1046 -1244 0
-1046 -1250 0
-1046 -1256 0
-1046 -1262 0
-1052 -1058 0
-1052 -1064 0
-1052 -1070 0
-1052 -1076 0
-1052 -1082 0
-1052 -1088 0
-1052 -1094 0
-1052 -1100 0
-1052 -1106 0
-1052 -1112 0
-1052 -1118 0
-1052 -1124 0
-1052 -1130 0
-1052 -1136 0
-1052 -1142 0
-1052 -1148 0
-1052 -1154 0
-1052 -1160 0
-1052 -1166 0
-1052 -1172 0
-1052 -1178 0
-1052 -1184 0
-1052 -1190 0
-1052 -1196 0
-1052 -1202 0
-1052 -1208 0
-1052 -1214 0
-1052 -1220 0
-1052 -1226 0
-1052 -1232 0
-1052 -1238 0
-1052 -1244 0
-1052 -1250 0
-1052 -1256 0
-1052 -1262 0
-1058 -1064 0
-1058 -1070 0
-1058 -1076 0
-1058 -1082 0
-1058 -1088 0
-1058 -1094 0
-1058 -1100 0
-1058 -1106 0
-1058 -1112 0
-1058 -1118 0
-1058 -1124 0
-1058 -1130 0
-1058 -1136 0
-1058 -1142 0
-1058 -1148 0
-1058 -1154 0
-1058 -1160 0
-1058 -1166 0
-1058 -1172 0
-1058 -1178 0
-1058 -1184 0
-1058 -1190 0
-1058 -1196 0
-1058 -1202 0
-1058 -1208 0
-1058 -1214 0
-1058 -1220 0
-1058 -1226 0
-1058 -1232 0
-1058 -1238 0
-1058 -1244 0
-1058 -1250 0
-1058 -1256 0
-1058 -1262 0
-1064 -1070 0
-1064 -1076 0
-1064 -1082 0
-1064 -1088 0
-1064 -1094 0
-1064 -1100 0
-1064 -1106 0
-1064 -1112 0
-1064 -1118 0
-1064 -1124 0
-1064 -1130 0
-1064 -1136 0
-1064 -1142 0
-1064 -1148 0
-1064 -1154 0
-1064 -1160 0
-1064 -1166 0
-1064 -1172 0
-1064 -1178 0
-1064 -1184 0
-1064 -1190 0
-1064 -1196 0
-1064 -1202 0
-1064 -1208 0
-1064 -1214 0
-1064 -1220 0
-1064 -1226 0
-1064 -1232 0
-1064 -1238 0
-1064 -1244 0
-1064 -1250 0
-1064 -1256 0
-1064 -1262 0
-1070 -1076 0
-1070 -1082 0
-1070 -1088 0
-1070 -1094 0
-1070 -1100 0
-1070 -1106 0
-1070 -1112 0
-1070 -1118 0
-1070 -1124 0
-1070 -1130 0
-1070 -1136 0
-1070 -1142 0
-1070 -1148 0
-1070 -1154 0
-1070 -1160 0
-1070 -1166 0
-1070 -1172 0
-1070 -1178 0
-1070 -1184 0
-1070 -1190 0
-1070 -1196 0
-1070 -1202 0
-1070 -1208 0
-1070 -1214 0
-1070 -1220 0
-1070 -1226 0
-1070 -1232 0
-1070 -1238 0
-1070 -1244 0
-1070 -1250 0
-1070 -1256 0
-1070 -1262 0
-1076 -1082 0
-1076 -1088 0
-1076 -1094 0
-1076 -1100 0
-1076 -1106 0
-1076 -1112 0
-1076 -1118 0
-1076 -1124 0
-1076 -1130 0
-1076 -1136 0
-1076 -1142 0
-1076 -1148 0
-1076 -1154 0
-1076 -1160 0
-1076 -1166 0
-1076 -1172 0
-1076 -1178 0
-1076 -1184 0
-1076 -1190 0
-1076 -1196 0
-1076 -1202 0
-1076 -1208 0
-1076 -1214 0
-1076 -1220 0
-1076 -1226 0
-1076 -1232 0
-1076 -1238 0
-1076 -1244 0
-1076 -1250 0
-1076 -1256 0
-1076 -1262 0
-1082 -1088 0
-1082 -1094 0
-1082 -1100 0
-1082 -1106 0
-1082 -1112 0
-1082 -1118 0
-1082 -1124 0
-1082 -1130 0
-1082 -1136 0
-1082 -1142 0
-1082 -1148 0
-1082 -1154 0
-1082 -1160 0
-1082 -1166 0
-1082 -1172 0
-1082 -1178 0
-1082 -1184 0
-1082 -1190 0
-1082 -1196 0
-1082 -1202 0
-1082 -1208 0
-1082 -1214 0
-1082 -1220 0
-1082 -1226 0
-1082 -1232 0
-1082 -1238 0
-1082 -1244 0
-1082 -1250 0
-1082 -1256 0
-1082 -1262 0
-1088 -1094 0
-1088 -1100 0
-1088 -1106 0
-1088 -1112 0
-1088 -1118 0
-1088 -1124 0
-1088 -1130 0
-1088 -1136 0
-1088 -1142 0
-1088 -1148 0
-1088 -1154 0
-1088 -1160 0
-1088 -1166 0
-1088 -1172 0
-1088 -1178 0
-1088 -1184 0
-1088 -1190 0
-1088 -1196 0
-1088 -1202 0
-1088 -1208 0
-1088 -1214 0
-1088 -1220 0
-1088 -1226 0
-1088 -1232 0
-1088 -1238 0
-1088 -1244 0
-1088 -1250 0
-1088 -1256 0
-1088 -1262 0
-1094 -1100 0
-1094 -1106 0
-1094 -1112 0
-1094 -1118 0
-1094 -1124 0
-1094 -1130 0
-1094 -1136 0
-1094 -1142 0
-1094 -1148 0
-1094 -1154 0
-1094 -1160 0
-1094 -1166 0
-1094 -1172 0
-1094 -1178 0
-1094 -1184 0
-1094 -1190 0
-1094 -1196 0
-1094 -1202 0
-1094 -1208 0
-1094 -1214 0
-1094 -1220 0
-1094 -1226 0
-1094 -1232 0
-1094 -1238 0
-1094 -1244 0
-1094 -1250 0
-1094 -1256 0
-1094 -1262 0
-1100 -1106 0
-1100 -1112 0
-1100 -1118 0
-1100 -1124 0
-1100 -1130 0
-1100 -1136 0
-1100 -1142 0
-1100 -1148 0
-1100 -1154 0
-1100 -1160 0
-1100 -1166 0
-1100 -1172 0
-1100 -1178 0
-1100 -1184 0
-1100 -1190 0
-1100 -1196 0
-1100 -1202 0
-1100 -1208 0
-1100 -1214 0
-1100 -1220 0
-1100 -1226 0
-1100 -1232 0
-1100 -1238 0
-1100 -1244 0
-1100 -1250 0
-1100 -1256 0
-1100 -1262 0
-1106 -1112 0
-1106 -1118 0
-1106 -1124 0
-1106 -1130 0
-1106 -1136 0
-1106 -1142 0
-1106 -1148 0
-1106 -1154 0
-1106 -1160 0
-1106 -1166 0
-1106 -1172 0
-1106 -1178 0
-1106 -1184 0
-1106 -1190 0
-1106 -1196 0
-1106 -1202 0
-1106 -1208 0
-1106 -1214 0
-1106 -1220 0
-1106 -1226 0
-1106 -1232 0
-1106 -1238 0
-1106 -1244 0
-1106 -1250 0
-1106 -1256 0
-1106 -1262 0
-1112 -1118 0
-1112 -1124 0
-1112 -1130 0
-1112 -1136 0
-1112 -1142 0
-1112 -1148 0
-1112 -1154 0
-1112 -1160 0
-1112 -1166 0
-1112 -1172 0
-1112 -1178 0
-1112 -1184 0
-1112 -1190 0
-1112 -1196 0
-1112 -1202 0
-1112 -1208 0
-1112 -1214 0
-1112 -1220 0
-1112 -1226 0
-1112 -1232 0
-1112 -1238 0
-1112 -1244 0
-1112 -1250 0
-1112 -1256 0
-1112 -1262 0
-1118 -1124 0
-1118 -1130 0
-1118 -1136 0
-1118 -1142 0
-1118 -1148 0
-1118 -1154 0
-1118 -1160 0
-1118 -1166 0
-1118 -1172 0
-1118 -1178 0
-1118 -1184 0
-1118 -1190 0
-1118 -1196 0
-1118 -1202 0
-1118 -1208 0
-1118 -1214 0
-1118 -1220 0
-1118 -1226 0
-1118 -1232 0
-1118 -1238 0
-1118 -1244 0
-1118 -1250 0
-1118 -1256 0
-1118 -1262 0
-1124 -1130 0
-1124 -1136 0
-1124 -1142 0
-1124 -1148 0
-1124 -1154 0
-1124 -1160 0
-1124 -1166 0
-1124 -1172 0
-1124 -1178 0
-1124 -1184 0
-1124 -1190 0
-1124 -1196 0
-1124 -1202 0
-1124 -1208 0
-1124 -1214 0
-1124 -1220 0
-1124 -1226 0
-1124 -1232 0
-1124 -1238 0
-1124 -1244 0
-1124 -1250 0
-1124 -1256 0
-1124 -1262 0
-1130 -1136 0
-1130 -1142 0
-1130 -1148 0
-1130 -1154 0
-1130 -1160 0
-1130 -1166 0
-1130 -1172 0
-1130 -1178 0
-1130 -1184 0
-1130 -1190 0
-1130 -1196 0
-1130 -1202 0
-1130 -1208 0
-1130 -1214 0
-1130 -1220 0
-1130 -1226 0
-1130 -1232 0
-1130 -1238 0
-1130 -1244 0
-1130 -1250 0
-1130 -1256 0
-1130 -1262 0
-1136 -1142 0
-1136 -1148 0
-1136 -1154 0
-1136 -1160 0
-1136 -1166 0
-1136 -1172 0
-1136 -1178 0
-1136 -1184 0
-1136 -1190 0
-1136 -1196 0
-1136 -1202 0
-1136 -1208 0
-1136 -1214 0
-1136 -1220 0
-1136 -1226 0
-1136 -1232 0
-1136 -1238 0
-1136 -1244 0
-1136 -1250 0
-1136 -1256 0
-1136 -1262 0
-1142 -1148 0
-1142 -1154 0
-1142 -1160 0
-1142 -1166 0
-1142 -1172 0
-1142 -1178 0
-1142 -1184 0
-1142 -1190 0
-1142 -1196 0
-1142 -1202 0
-1142 -1208 0
-1142 -1214 0
-1142 -1220 0
-1142 -1226 0
-1142 -1232 0
-1142 -1238 0
-1142 -1244 0
-1142 -1250 0
-1142 -1256 0
-1142 -1262 0
-1148 -1154 0
-1148 -1160 0
-1148 -1166 0
-1148 -1172 0
-1148 -1178 0
-1148 -1184 0
-1148 -1190 0
-1148 -1196 0
-1148 -1202 0
-1148 -1208 0
-1148 -1214 0
-1148 -1220 0
-1148 -1226 0
-1148 -1232 0
-1148 -1238 0
-1148 -1244 0
-1148 -1250 0
-1148 -1256 0
-1148 -1262 0
-1154 -1160 0
-1154 -1166 0
-1154 -1172 0
-1154 -1178 0
-1154 -1184 0
-1154 -1190 0
-1154 -1196 0
-1154 -1202 0
-1154 -1208 0
-1154 -1214 0
-1154 -1220 0
-1154 -1226 0
-1154 -1232 0
-1154 -1238 0
-1154 -1244 0
-1154 -1250 0
-1154 -1256 0
-1154 -1262 0
-1160 -1166 0
-1160 -1172 0
-1160 -1178 0
-1160 -1184 0
-1160 -1190 0
-1160 -1196 0
-1160 -1202 0
-1160 -1208 0
-1160 -1214 0
-1160 -1220 0
-1160 -1226 0
-1160 -1232 0
-1160 -1238 0
-1160 -1244 0
-1160 -1250 0
-1160 -1256 0
-1160 -1262 0
-1166 -1172 0
-1166 -1178 0
-1166 -1184 0
-1166 -1190 0
-1166 -1196 0
-1166 -1202 0
-1166 -1208 0
-1166 -1214 0
-1166 -1220 0
-1166 -1226 0
-1166 -1232 0
-1166 -1238 0
-1166 -1244 0
-1166 -1250 0
-1166 -1256 0
-1166 -1262 0
-1172 -1178 0
-1172 -1184 0
-1172 -1190 0
-1172 -1196 0
-1172 -1202 0
-1172 -1208 0
-1172 -1214 0
-1172 -1220 0
-1172 -1226 0
-1172 -1232 0
-1172 -1238 0
-1172 -1244 0
-1172 -1250 0
-1172 -1256 0
-1172 -1262 0
-1178 -1184 0
-1178 -1190 0
-1178 -1196 0
-1178 -1202 0
-1178 -1208 0
-1178 -1214 0
-1178 -1220 0
-1178 -1226 0
-1178 -1232 0
-1178 -1238 0
-1178 -1244 0
-1178 -1250 0
-1178 -1256 0
-1178 -1262 0
-1184 -1190 0
-1184 -1196 0
-1184 -1202 0
-1184 -1208 0
-1184 -1214 0
-1184 -1220 0
-1184 -1226 0
-1184 -1232 0
-1184 -1238 0
-1184 -1244 0
-1184 -1250 0
-1184 -1256 0
-1184 -1262 0
-1190 -1196 0
-1190 -1202 0
-1190 -1208 0
-1190 -1214 0
-1190 -1220 0
-1190 -1226 0
-1190 -1232 0
-1190 -1238 0
-1190 -1244 0
-1190 -1250 0
-1190 -1256 0
-1190 -1262 0
-1196 -1202 0
-1196 -1208 0
-1196 -1214 0
-1196 -1220 0
-1196 -1226 0
-1196 -1232 0
-1196 -1238 0
-1196 -1244 0
-1196 -1250 0
-1196 -1256 0
-1196 -1262 0
-1202 -1208 0
-1202 -1214 0
-1202 -1220 0
-1202 -1226 0
-1202 -1232 0
-1202 -1238 0
-1202 -1244 0
-1202 -1250 0
-1202 -1256 0
-1202 -1262 0
-1208 -1214 0
-1208 -1220 0
-1208 -1226 0
-1208 -1232 0
-1208 -1238 0
-1208 -1244 0
-1208 -1250 0
-1208 -1256 0
-1208 -1262 0
-1214 -1220 0
-1214 -1226 0
-1214 -1232 0
-1214 -1238 0
-1214 -1244 0
-1214 -1250 0
-1214 -1256 0
-1214 -1262 0
-1220 -1226 0
-1220 -1232 0
-1220 -1238 0
-1220 -1244 0
-1220 -1250 0
-1220 -1256 0
-1220 -1262 0
-1226 -1232 0
-1226 -1238 0
-1226 -1244 0
-1226 -1250 0
-1226 -1256 0
-1226 -1262 0
-1232 -1238 0
-1232 -1244 0
-1232 -1250 0
-1232 -1256 0
-1232 -1262 0
-1238 -1244 0
-1238 -1250 0
-1238 -1256 0
-1238 -1262 0
-1244 -1250 0
-1244 -1256 0
-1244 -1262 0
-1250 -1256 0
-1250 -1262 0
-1256 -1262 0
-764 232 0
-764 -183 0
-764 -169 2 0
-764 -169 156 0
-764 -169 -50 0
-764 -169 -57 0
-764 -169 -64 0
-764 -169 -71 0
-764 -169 -78 0
-764 -169 -43 -176 0
-764 -169 -85 -197 0
-764 -169 -120 -218 0
-764 -169 386 512 638 0
-764 -176 2 0
-764 -176 163 0
-764 -176 -50 0
-764 -176 -57 0
-764 -176 -64 0
-764 -176 -71 0
-764 -176 -78 0
-764 -176 -43 -183 0
-764 -176 -85 -204 0
-764 -176 -120 -225 0
-764 -176 393 519 645 0
-764 -1 -169 -155 0
-764 -1 -176 -162 0
-770 232 0
-770 -183 0
-770 -169 9 0
-770 -169 156 0
-770 -169 -43 0
-770 -169 -57 0
-770 -169 -64 0
-770 -169 -71 0
-770 -169 -78 0
-770 -169 -50 -176 0
-770 -169 -85 -197 0
-770 -169 -92 -197 0
-770 -169 -120 -218 0
-770 -169 -127 -218 0
-770 -169 407 533 659 0
-770 -176 9 0
-770 -176 163 0
-770 -176 -43 0
-770 -176 -57 0
-770 -176 -64 0
-770 -176 -71 0
-770 -176 -78 0
-770 -176 -50 -183 0
-770 -176 -85 -204 0
-770 -176 -92 -204 0
-770 -176 -120 -225 0
-770 -176 -127 -225 0
-770 -176 414 540 666 0
-770 -8 -169 -155 0
-770 -8 -176 -162 0
-776 232 0
-776 -183 0
-776 -169 16 0
-776 -169 156 0
-776 -169 -43 0
-776 -169 -50 0
-776 -169 -64 0
-776 -169 -71 0
-776 -169 -78 0
-776 -169 -57 -176 0
-776 -169 -92 -197 0
-776 -169 -99 -197 0
-776 -169 -120 -218 0
-776 -169 -127 -218 0
-776 -169 -134 -218 0
-776 -169 428 554 680 0
-776 -176 16 0
-776 -176 163 0
-776 -176 -43 0
-776 -176 -50 0
-776 -176 -64 0
-776 -176 -71 0
-776 -176 -78 0
-776 -176 -57 -183 0
-776 -176 -92 -204 0
-776 -176 -99 -204 0
-776 -176 -120 -225 0
-776 -176 -127 -225 0
-776 -176 -134 -225 0
-776 -176 435 561 687 0
-776 -15 -169 -155 0
-776 -15 -176 -162 0
-782 232 0
-782 -183 0
-782 -169 23 0
-782 -169 156 0
-782 -169 -43 0
-782 -169 -50 0
-782 -169 -57 0
-782 -169 -71 0
-782 -169 -78 0
-782 -169 -64 -176 0
-782 -169 -99 -197 0
-782 -169 -106 -197 0
-782 -169 -127 -218 0
-782 -169 -134 -218 0
-782 -169 -141 -218 0
-782 -169 449 575 701 0
-782 -176 23 0
-782 -176 163 0
-782 -176 -43 0
-782 -176 -50 0
-782 -176 -57 0
-782 -176 -71 0
-782 -176 -78 0
-782 -176 -64 -183 0
-782 -176 -99 -204 0
-782 -176 -106 -204 0
-782 -176 -127 -225 0
-782 -176 -134 -225 0
-782 -176 -141 -225 0
-782 -176 456 582 708 0
-782 -22 -169 -155 0
-782 -22 -176 -162 0
-788 232 0
-788 -183 0
-788 -169 30 0
-788 -169 156 0
-788 -169 -43 0
-788 -169 -50 0
-788 -169 -57 0
-788 -169 -64 0
-788 -169 -78 0
-788 -169 -71 -176 0
-788 -169 -106 -197 0
-788 -169 -113 -197 0
-788 -169 -134 -218 0
-788 -169 -141 -218 0
-788 -169 470 596 722 0
-788 -176 30 0
-788 -176 163 0
-788 -176 -43 0
-788 -176 -50 0
-788 -176 -57 0
-788 -176 -64 0
-788 -176 -78 0
-788 -176 -71 -183 0
-788 -176 -106 -204 0
-788 -176 -113 -204 0
-788 -176 -134 -225 0
-788 -176 -141 -225 0
-788 -176 477 603 729 0
-788 -29 -169 -155 0
-788 -29 -176 -162 0
-794 232 0
-794 -183 0
-794 -169 37 0
-794 -169 156 0
-794 -169 -43 0
-794 -169 -50 0
-794 -169 -57 0
-794 -169 -64 0
-794 -169 -71 0
-794 -169 -78 -176 0
-794 -169 -113 -197 0
-794 -169 -141 -218 0
-794 -169 491 617 743 0
-794 -176 37 0
-794 -176 163 0
-794 -176 -43 0
-794 -176 -50 0
-794 -176 -57 0
-794 -176 -64 0
-794 -176 -71 0
-794 -176 -78 -183 0
-794 -176 -113 -204 0
-794 -176 -141 -225 0
-794 -176 498 624 750 0
-794 -36 -169 -155 0
-794 -36 -176 -162 0
-800 232 0
-800 -204 0
-800 -190 2 0
-800 -190 156 0
-800 -190 -92 0
-800 -190 -99 0
-800 -190 -106 0
-800 -190 -113 0
-800 -190 -43 -176 0
-800 -190 -85 -197 0
-800 -190 -120 -218 0
-800 -190 386 512 638 0
-800 -197 2 0
-800 -197 163 0
-800 -197 -92 0
-800 -197 -99 0
-800 -197 -106 0
-800 -197 -113 0
-800 -197 -43 -183 0
-800 -197 -85 -204 0
-800 -197 -120 -225 0
-800 -197 393 519 645 0
-800 -1 -190 -155 0
-800 -1 -197 -162 0
-806 232 0
-806 -204 0
-806 -190 9 0
-806 -190 156 0
-806 -190 -99 0
-806 -190 -106 0
-806 -190 -113 0
-806 -190 -50 -176 0
-806 -190 -85 -197 0
-806 -190 -92 -197 0
-806 -190 -120 -218 0
-806 -190 -127 -218 0
-806 -190 407 533 659 0
-806 -197 9 0
-806 -197 163 0
-806 -197 -99 0
-806 -197 -106 0
-806 -197 -113 0
-806 -197 -50 -183 0
-806 -197 -85 -204 0
-806 -197 -92 -204 0
-806 -197 -120 -225 0
-806 -197 -127 -225 0
-806 -197 414 540 666 0
-806 -8 -190 -155 0
-806 -8 -197 -162 0
-812 232 0
-812 -204 0
-812 -190 16 0
-812 -190 156 0
-812 -190 -85 0
-812 -190 -106 0
-812 -190 -113 0
-812 -190 -57 -176 0
-812 -190 -92 -197 0
-812 -190 -99 -197 0
-812 -190 -120 -218 0
-812 -190 -127 -218 0
-812 -190 -134 -218 0
-812 -190 428 554 680 0
-812 -197 16 0
-812 -197 163 0
-812 -197 -85 0
-812 -197 -106 0
-812 -197 -113 0
-812 -197 -57 -183 0
-812 -197 -92 -204 0
-812 -197 -99 -204 0
-812 -197 -120 -225 0
-812 -197 -127 -225 0
-812 -197 -134 -225 0
-812 -197 435 561 687 0
-812 -15 -190 -155 0
-812 -15 -197 -162 0
-818 232 0
-818 -204 0
-818 -190 23 0
-818 -190 156 0
-818 -190 -85 0
-818 -190 -92 0
-818 -190 -113 0
-818 -190 -64 -176 0
-818 -190 -99 -197 0
-818 -190 -106 -197 0
-818 -190 -127 -218 0
-818 -190 -134 -218 0
-818 -190 -141 -218 0
-818 -190 449 575 701 0
-818 -197 23 0
-818 -197 163 0
-818 -197 -85 0
-818 -197 -92 0
-818 -197 -113 0
-818 -197 -64 -183 0
-818 -197 -99 -204 0
-818 -197 -106 -204 0
-818 -197 -127 -225 0
-818 -197 -134 -225 0
-818 -197 -141 -225 0
-818 -197 456 582 708 0
-818 -22 -190 -155 0
-818 -22 -197 -162 0
-824 232 0
-824 -204 0
-824 -190 30 0
-824 -190 156 0
-824 -190 -85 0
-824 -190 -92 0
-824 -190 -99 0
-824 -190 -71 -176 0
-824 -190 -106 -197 0
-824 -190 -113 -197 0
-824 -190 -134 -218 0
-824 -190 -141 -218 0
-824 -190 470 596 722 0
-824 -197 30 0
-824 -197 163 0
-824 -197 -85 0
-824 -197 -92 0
-824 -197 -99 0
-824 -197 -71 -183 0
-824 -197 -106 -204 0
-824 -197 -113 -204 0
-824 -197 -134 -225 0
-824 -197 -141 -225 0
-824 -197 477 603 729 0
-824 -29 -190 -155 0
-824 -29 -197 -162 0
-830 232 0
-830 -204 0
-830 -190 37 0
-830 -190 156 0
-830 -190 -85 0
-830 -190 -92 0
-830 -190 -99 0
-830 -190 -106 0
-830 -190 -78 -176 0
-830 -190 -113 -197 0
-830 -190 -141 -218 0
-830 -190 491 617 743 0
-830 -197 37 0
-830 -197 163 0
-830 -197 -85 0
-830 -197 -92 0
-830 -197 -99 0
-830 -197 -106 0
-830 -197 -78 -183 0
-830 -197 -113 -204 0
-830 -197 -141 -225 0
-830 -197 498 624 750 0
-830 -36 -190 -155 0
-830 -36 -197 -162 0
-836 232 0
-836 -225 0
-836 -211 2 0
-836 -211 156 0
-836 -211 -127 0
-836 -211 -134 0
-836 -211 -141 0
-836 -211 -43 -176 0
-836 -211 -85 -197 0
-836 -211 -120 -218 0
-836 -211 386 512 638 0
-836 -218 2 0
-836 -218 163 0
-836 -218 -127 0
-836 -218 -134 0
-836 -218 -141 0
-836 -218 -43 -183 0
-836 -218 -85 -204 0
-836 -218 -120 -225 0
-836 -218 393 519 645 0
-836 -1 -211 -155 0
-836 -1 -218 -162 0
-842 232 0
-842 -225 0
-842 -211 9 0
-842 -211 156 0
-842 -211 -134 0
-842 -211 -141 0
-842 -211 -50 -176 0
-842 -211 -85 -197 0
-842 -211 -92 -197 0
-842 -211 -120 -218 0
-842 -211 -127 -218 0
-842 -211 407 533 659 0
-842 -218 9 0
-842 -218 163 0
-842 -218 -134 0
-842 -218 -141 0
-842 -218 -50 -183 0
-842 -218 -85 -204 0
-842 -218 -92 -204 0
-842 -218 -120 -225 0
-842 -218 -127 -225 0
-842 -218 414 540 666 0
-842 -8 -211 -155 0
-842 -8 -218 -162 0
-848 232 0
-848 -225 0
-848 -211 16 0
-848 -211 156 0
-848 -211 -141 0
-848 -211 -57 -176 0
-848 -211 -92 -197 0
-848 -211 -99 -197 0
-848 -211 -120 -218 0
-848 -211 -127 -218 0
-848 -211 -134 -218 0
-848 -211 428 554 680 0
-848 -218 16 0
-848 -218 163 0
-848 -218 -141 0
-848 -218 -57 -183 0
-848 -218 -92 -204 0
-848 -218 -99 -204 0
-848 -218 -120 -225 0
-848 -218 -127 -225 0
-848 -218 -134 -225 0
-848 -218 435 561 687 0
-848 -15 -211 -155 0
-848 -15 -218 -162 0
-854 232 0
-854 -225 0
-854 -211 23 0
-854 -211 156 0
-854 -211 -120 0
-854 -211 -64 -176 0
-854 -211 -99 -197 0
-854 -211 -106 -197 0
-854 -211 -127 -218 0
-854 -211 -134 -218 0
-854 -211 -141 -218 0
-854 -211 449 575 701 0
-854 -218 23 0
-854 -218 163 0
-854 -218 -120 0
-854 -218 -64 -183 0
-854 -218 -99 -204 0
-854 -218 -106 -204 0
-854 -218 -127 -225 0
-854 -218 -134 -225 0
-854 -218 -141 -225 0
-854 -218 456 582 708 0
-854 -22 -211 -155 0
-854 -22 -218 -162 0
-860 232 0
-860 -225 0
-860 -211 30 0
-860 -211 156 0
-860 -211 -120 0
-860 -211 -127 0
-860 -211 -71 -176 0
-860 -211 -106 -197 0
-860 -211 -113 -197 0
-860 -211 -134 -218 0
-860 -211 -141 -218 0
-860 -211 470 596 722 0
-860 -218 30 0
-860 -218 163 0
-860 -218 -120 0
-860 -218 -127 0
-860 -218 -71 -183 0
-860 -218 -106 -204 0
-860 -218 -113 -204 0
-860 -218 -134 -225 0
-860 -218 -141 -225 0
-860 -218 477 603 729 0
-860 -29 -211 -155 0
-860 -29 -218 -162 0
-866 232 0
-866 -225 0
-866 -211 37 0
-866 -211 156 0
-866 -211 -120 0
-866 -211 -127 0
-866 -211 -134 0
-866 -211 -78 -176 0
-866 -211 -113 -197 0
-866 -211 -141 -218 0
-866 -211 491 617 743 0
-866 -218 37 0
-866 -218 163 0
-866 -218 -120 0
-866 -218 -127 0
-866 -218 -134 0
-866 -218 -78 -183 0
-866 -218 -113 -204 0
-866 -218 -141 -225 0
-866 -218 498 624 750 0
-866 -36 -211 -155 0
-866 -36 -218 -162 0
-872 232 0
-872 2 0
-872 149 0
-872 -1 -148 0
-872 -43 -169 0
-872 -85 -190 0
-872 -120 -211 0
-878 232 0
-878 9 0
-878 149 0
-878 -8 -148 0
-878 -50 -169 0
-878 -85 -190 0
-878 -92 -190 0
-878 -120 -211 0
-878 -127 -211 0
-884 232 0
-884 16 0
-884 149 0
-884 -15 -148 0
-884 -57 -169 0
-884 -92 -190 0
-884 -99 -190 0
-884 -120 -211 0
-884 -127 -211 0
-884 -134 -211 0
-890 232 0
-890 23 0
-890 149 0
-890 -22 -148 0
-890 -64 -169 0
-890 -99 -190 0
-890 -106 -190 0
-890 -127 -211 0
-890 -134 -211 0
-890 -141 -211 0
-896 232 0
-896 30 0
-896 149 0
-896 -29 -148 0
-896 -71 -169 0
-896 -106 -190 0
-896 -113 -190 0
-896 -134 -211 0
-896 -141 -211 0
-902 232 0
-902 37 0
-902 149 0
-902 -36 -148 0
-902 -78 -169 0
-902 -113 -190 0
-902 -141 -211 0
-908 239 0
-908 -162 0
-908 -148 44 0
-908 -148 177 0
-908 -148 -8 0
-908 -148 -15 0
-908 -148 -22 0
-908 -148 -29 0
-908 -148 -36 0
-908 -148 -1 -155 0
-908 -148 -85 -197 0
-908 -148 -120 -218 0
-908 -148 260 512 638 0
-908 -155 44 0
-908 -155 184 0
-908 -155 -8 0
-908 -155 -15 0
-908 -155 -22 0
-908 -155 -29 0
-908 -155 -36 0
-908 -155 -1 -162 0
-908 -155 -85 -204 0
-908 -155 -120 -225 0
-908 -155 267 519 645 0
-908 -43 -148 -176 0
-908 -43 -155 -183 0
-914 239 0
-914 -162 0
-914 -148 51 0
-914 -148 177 0
-914 -148 -1 0
-914 -148 -15 0
-914 -148 -22 0
-914 -148 -29 0
-914 -148 -36 0
-914 -148 -8 -155 0
-914 -148 -85 -197 0
-914 -148 -92 -197 0
-914 -148 -120 -218 0
-914 -148 -127 -218 0
-914 -148 281 533 659 0
-914 -155 51 0
-914 -155 184 0
-914 -155 -1 0
-914 -155 -15 0
-914 -155 -22 0
-914 -155 -29 0
-914 -155 -36 0
-914 -155 -8 -162 0
-914 -155 -85 -204 0
-914 -155 -92 -204 0
-914 -155 -120 -225 0
-914 -155 -127 -225 0
-914 -155 288 540 666 0
-914 -50 -148 -176 0
-914 -50 -155 -183 0
-920 239 0
-920 -162 0
-920 -148 58 0
-920 -148 177 0
-920 -148 -1 0
-920 -148 -8 0
-920 -148 -22 0
-920 -148 -29 0
-920 -148 -36 0
-920 -148 -15 -155 0
-920 -148 -92 -197 0
-920 -148 -99 -197 0
-920 -148 -120 -218 0
-920 -148 -127 -218 0
-920 -148 -134 -218 0
-920 -148 302 554 680 0
-920 -155 58 0
-920 -155 184 0
-920 -155 -1 0
-920 -155 -8 0
-920 -155 -22 0
-920 -155 -29 0
-920 -155 -36 0
-920 -155 -15 -162 0
-920 -155 -92 -204 0
-920 -155 -99 -204 0
-920 -155 -120 -225 0
-920 -155 -127 -225 0
-920 -155 -134 -225 0
-920 -155 309 561 687 0
-920 -57 -148 -176 0
-920 -57 -155 -183 0
-926 239 0
-926 -162 0
-926 -148 65 0
-926 -148 177 0
-926 -148 -1 0
-926 -148 -8 0
-926 -148 -15 0
-926 -148 -29 0
-926 -148 -36 0
-926 -148 -22 -155 0
-926 -148 -99 -197 0
-926 -148 -106 -197 0
-926 -148 -127 -218 0
-926 -148 -134 -218 0
-926 -148 -141 -218 0
-926 -148 323 575 701 0
-926 -155 65 0
-926 -155 184 0
-926 -155 -1 0
-926 -155 -8 0
-926 -155 -15 0
-926 -155 -29 0
-926 -155 -36 0
-926 -155 -22 -162 0
-926 -155 -99 -204 0
-926 -155 -106 -204 0
-926 -155 -127 -225 0
-926 -155 -134 -225 0
-926 -155 -141 -225 0
-926 -155 330 582 708 0
-926 -64 -148 -176 0
-926 -64 -155 -183 0
-932 239 0
-932 -162 0
-932 -148 72 0
-932 -148 177 0
-932 -148 -1 0
-932 -148 -8 0
-932 -148 -15 0
-932 -148 -22 0
-932 -148 -36 0
-932 -148 -29 -155 0
-932 -148 -106 -197 0
-932 -148 -113 -197 0
-932 -148 -134 -218 0
-932 -148 -141 -218 0
-932 -148 344 596 722 0
-932 -155 72 0
-932 -155 184 0
-932 -155 -1 0
-932 -155 -8 0
-932 -155 -15 0
-932 -155 -22 0
-932 -155 -36 0
-932 -155 -29 -162 0
-932 -155 -106 -204 0
-932 -155 -113 -204 0
-932 -155 -134 -225 0
-932 -155 -141 -225 0
-932 -155 351 603 729 0
-932 -71 -148 -176 0
-932 -71 -155 -183 0
-938 239 0
-938 -162 0
-938 -148 79 0
-938 -148 177 0
-938 -148 -1 0
-938 -148 -8 0
-938 -148 -15 0
-938 -148 -22 0
-938 -148 -29 0
-938 -148 -36 -155 0
-938 -148 -113 -197 0
-938 -148 -141 -218 0
-938 -148 365 617 743 0
-938 -155 79 0
-938 -155 184 0
-938 -155 -1 0
-938 -155 -8 0
-938 -155 -15 0
-938 -155 -22 0
-938 -155 -29 0
-938 -155 -36 -162 0
-938 -155 -113 -204 0
-938 -155 -141 -225 0
-938 -155 372 624 750 0
-938 -78 -148 -176 0
-938 -78 -155 -183 0
-944 239 0
-944 -204 0
-944 -190 44 0
-944 -190 177 0
-944 -190 -92 0
-944 -190 -99 0
-944 -190 -106 0
-944 -190 -113 0
-944 -190 -1 -155 0
-944 -190 -85 -197 0
-944 -190 -120 -218 0
-944 -190 260 512 638 0
-944 -197 44 0
-944 -197 184 0
-944 -197 -92 0
-944 -197 -99 0
-944 -197 -106 0
-944 -197 -113 0
-944 -197 -1 -162 0
-944 -197 -85 -204 0
-944 -197 -120 -225 0
-944 -197 267 519 645 0
-944 -43 -190 -176 0
-944 -43 -197 -183 0
-950 239 0
-950 -204 0
-950 -190 51 0
-950 -190 177 0
-950 -190 -99 0
-950 -190 -106 0
-950 -190 -113 0
-950 -190 -8 -155 0
-950 -190 -85 -197 0
-950 -190 -92 -197 0
-950 -190 -120 -218 0
-950 -190 -127 -218 0
-950 -190 281 533 659 0
-950 -197 51 0
-950 -197 184 0
-950 -197 -99 0
-950 -197 -106 0
-950 -197 -113 0
-950 -197 -8 -162 0
-950 -197 -85 -204 0
-950 -197 -92 -204 0
-950 -197 -120 -225 0
-950 -197 -127 -225 0
-950 -197 288 540 666 0
-950 -50 -190 -176 0
-950 -50 -197 -183 0
-956 239 0
-956 -204 0
-956 -190 58 0
-956 -190 177 0
-956 -190 -85 0
-956 -190 -106 0
-956 -190 -113 0
-956 -190 -15 -155 0
-956 -190 -92 -197 0
-956 -190 -99 -197 0
-956 -190 -120 -218 0
-956 -190 -127 -218 0
-956 -190 -134 -218 0
-956 -190 302 554 680 0
-956 -197 58 0
-956 -197 184 0
-956 -197 -85 0
-956 -197 -106 0
-956 -197 -113 0
-956 -197 -15 -162 0
-956 -197 -92 -204 0
-956 -197 -99 -204 0
-956 -197 -120 -225 0
-956 -197 -127 -225 0
-956 -197 -134 -225 0
-956 -197 309 561 687 0
-956 -57 -190 -176 0
-956 -57 -197 -183 0
-962 239 0
-962 -204 0
-962 -190 65 0
-962 -190 177 0
-962 -190 -85 0
-962 -190 -92 0
-962 -190 -113 0
-962 -190 -22 -155 0
-962 -190 -99 -197 0
-962 -190 -106 -197 0
-962 -190 -127 -218 0
-962 -190 -134 -218 0
-962 -190 -141 -218 0
-962 -190 323 575 701 0
-962 -197 65 0
-962 -197 184 0
-962 -197 -85 0
-962 -197 -92 0
-962 -197 -113 0
-962 -197 -22 -162 0
-962 -197 -99 -204 0
-962 -197 -106 -204 0
-962 -197 -127 -225 0
-962 -197 -134 -225 0
-962 -197 -141 -225 0
-962 -197 330 582 708 0
-962 -64 -190 -176 0
-962 -64 -197 -183 0
-968 239 0
-968 -204 0
-968 -190 72 0
-968 -190 177 0
-968 -190 -85 0
-968 -190 -92 0
-968 -190 -99 0
-968 -190 -29 -155 0
-968 -190 -106 -197 0
-968 -190 -113 -197 0
-968 -190 -134 -218 0
-968 -190 -141 -218 0
-968 -190 344 596 722 0
-968 -197 72 0
-968 -197 184 0
-968 -197 -85 0
-968 -197 -92 0
-968 -197 -99 0
-968 -197 -29 -162 0
-968 -197 -106 -204 0
-968 -197 -113 -204 0
-968 -197 -134 -225 0
-968 -197 -141 -225 0
-968 -197 351 603 729 0
-968 -71 -190 -176 0
-968 -71 -197 -183 0
-974 239 0
-974 -204 0
-974 -190 79 0
-974 -190 177 0
-974 -190 -85 0
-974 -190 -92 0
-974 -190 -99 0
-974 -190 -106 0
-974 -190 -36 -155 0
-974 -190 -113 -197 0
-974 -190 -141 -218 0
-974 -190 365 617 743 0
-974 -197 79 0
-974 -197 184 0
-974 -197 -85 0
-974 -197 -92 0
-974 -197 -99 0
-974 -197 -106 0
-974 -197 -36 -162 0
-974 -197 -113 -204 0
-974 -197 -141 -225 0
-974 -197 372 624 750 0
-974 -78 -190 -176 0
-974 -78 -197 -183 0
-980 239 0
-980 -225 0
-980 -211 44 0
-980 -211 177 0
-980 -211 -127 0
-980 -211 -134 0
-980 -211 -141 0
-980 -211 -1 -155 0
-980 -211 -85 -197 0
-980 -211 -120 -218 0
-980 -211 260 512 638 0
-980 -218 44 0
-980 -218 184 0
-980 -218 -127 0
-980 -218 -134 0
-980 -218 -141 0
-980 -218 -1 -162 0
-980 -218 -85 -204 0
-980 -218 -120 -225 0
-980 -218 267 519 645 0
-980 -43 -211 -176 0
-980 -43 -218 -183 0
-986 239 0
-986 -225 0
-986 -211 51 0
-986 -211 177 0
-986 -211 -134 0
-986 -211 -141 0
-986 -211 -8 -155 0
-986 -211 -85 -197 0
-986 -211 -92 -197 0
-986 -211 -120 -218 0
-986 -211 -127 -218 0
-986 -211 281 533 659 0
-986 -218 51 0
-986 -218 184 0
-986 -218 -134 0
-986 -218 -141 0
-986 -218 -8 -162 0
-986 -218 -85 -204 0
-986 -218 -92 -204 0
-986 -218 -120 -225 0
-986 -218 -127 -225 0
-986 -218 288 540 666 0
-986 -50 -211 -176 0
-986 -50 -218 -183 0
-992 239 0
-992 -225 0
-992 -211 58 0
-992 -211 177 0
-992 -211 -141 0
-992 -211 -15 -155 0
-992 -211 -92 -197 0
-992 -211 -99 -197 0
-992 -211 -120 -218 0
-992 -211 -127 -218 0
-992 -211 -134 -218 0
-992 -211 302 554 680 0
-992 -218 58 0
-992 -218 184 0
-992 -218 -141 0
-992 -218 -15 -162 0
-992 -218 -92 -204 0
-992 -218 -99 -204 0
-992 -218 -120 -225 0
-992 -218 -127 -225 0
-992 -218 -134 -225 0
-992 -218 309 561 687 0
-992 -57 -211 -176 0
-992 -57 -218 -183 0
-998 239 0
-998 -225 0
-998 -211 65 0
-998 -211 177 0
-998 -211 -120 0
-998 -211 -22 -155 0
-998 -211 -99 -197 0
-998 -211 -106 -197 0
-998 -211 -127 -218 0
-998 -211 -134 -218 0
-998 -211 -141 -218 0
-998 -211 323 575 701 0
-998 -218 65 0
-998 -218 184 0
-998 -218 -120 0
-998 -218 -22 -162 0
-998 -218 -99 -204 0
-998 -218 -106 -204 0
-998 -218 -127 -225 0
-998 -218 -134 -225 0
-998 -218 -141 -225 0
-998 -218 330 582 708 0
-998 -64 -211 -176 0
-998 -64 -218 -183 0
-1004 239 0
-1004 -225 0
-1004 -211 72 0
-1004 -211 177 0
-1004 -211 -120 0
-1004 -211 -127 0
-1004 -211 -29 -155 0
-1004 -211 -106 -197 0
-1004 -211 -113 -197 0
-1004 -211 -134 -218 0
-1004 -211 -141 -218 0
-1004 -211 344 596 722 0
-1004 -218 72 0
-1004 -218 184 0
-1004 -218 -120 0
-1004 -218 -127 0
-1004 -218 -29 -162 0
-1004 -218 -106 -204 0
-1004 -218 -113 -204 0
-1004 -218 -134 -225 0
-1004 -218 -141 -225 0
-1004 -218 351 603 729 0
-1004 -71 -211 -176 0
-1004 -71 -218 -183 0
-1010 239 0
-1010 -225 0
-1010 -211 79 0
-1010 -211 177 0
-1010 -211 -120 0
-1010 -211 -127 0
-1010 -211 -134 0
-1010 -211 -36 -155 0
-1010 -211 -113 -197 0
-1010 -211 -141 -218 0
-1010 -211 365 617 743 0
-1010 -218 79 0
-1010 -218 184 0
-1010 -218 -120 0
-1010 -218 -127 0
-1010 -218 -134 0
-1010 -218 -36 -162 0
-1010 -218 -113 -204 0
-1010 -218 -141 -225 0
-1010 -218 372 624 750 0
-1010 -78 -211 -176 0
-1010 -78 -218 -183 0
-1016 239 0
-1016 44 0
-1016 170 0
-1016 -43 -169 0
-1016 -1 -148 0
-1016 -85 -190 0
-1016 -120 -211 0
-1022 239 0
-1022 51 0
-1022 170 0
-1022 -50 -169 0
-1022 -8 -148 0
-1022 -85 -190 0
-1022 -92 -190 0
-1022 -120 -211 0
-1022 -127 -211 0
-1028 239 0
-1028 58 0
-1028 170 0
-1028 -57 -169 0
-1028 -15 -148 0
-1028 -92 -190 0
-1028 -99 -190 0
-1028 -120 -211 0
-1028 -127 -211 0
-1028 -134 -211 0
-1034 239 0
-1034 65 0
-1034 170 0
-1034 -64 -169 0
-1034 -22 -148 0
-1034 -99 -190 0
-1034 -106 -190 0
-1034 -127 -211 0
-1034 -134 -211 0
-1034 -141 -211 0
-1040 239 0
-1040 72 0
-1040 170 0
-1040 -71 -169 0
-1040 -29 -148 0
-1040 -106 -190 0
-1040 -113 -190 0
-1040 -134 -211 0
-1040 -141 -211 0
-1046 239 0
-1046 79 0
-1046 170 0
-1046 -78 -169 0
-1046 -36 -148 0
-1046 -113 -190 0
-1046 -141 -211 0
-1052 246 0
-1052 -162 0
-1052 -148 86 0
-1052 -148 198 0
-1052 -148 -15 0
-1052 -148 -22 0
-1052 -148 -29 0
-1052 -148 -36 0
-1052 -148 -1 -155 0
-1052 -148 -8 -155 0
-1052 -148 -43 -176 0
-1052 -148 -50 -176 0
-1052 -148 -120 -218 0
-1052 -148 -127 -218 0
-1052 -148 260 386 638 281 407 659 0
-1052 -155 86 0
-1052 -155 205 0
-1052 -155 -15 0
-1052 -155 -22 0
-1052 -155 -29 0
-1052 -155 -36 0
-1052 -155 -1 -162 0
-1052 -155 -8 -162 0
-1052 -155 -43 -183 0
-1052 -155 -50 -183 0
-1052 -155 -120 -225 0
-1052 -155 -127 -225 0
-1052 -155 267 393 645 288 414 666 0
-1052 -85 -148 -197 0
-1052 -85 -155 -204 0
-1058 246 0
-1058 -162 0
-1058 -148 93 0
-1058 -148 198 0
-1058 -148 -1 0
-1058 -148 -22 0
-1058 -148 -29 0
-1058 -148 -36 0
-1058 -148 -8 -155 0
-1058 -148 -15 -155 0
-1058 -148 -50 -176 0
-1058 -148 -57 -176 0
-1058 -148 -120 -218 0
-1058 -148 -127 -218 0
-1058 -148 -134 -218 0
-1058 -148 281 407 659 302 428 680 0
-1058 -155 93 0
-1058 -155 205 0
-1058 -155 -1 0
-1058 -155 -22 0
-1058 -155 -29 0
-1058 -155 -36 0
-1058 -155 -8 -162 0
-1058 -155 -15 -162 0
-1058 -155 -50 -183 0
-1058 -155 -57 -183 0
-1058 -155 -120 -225 0
-1058 -155 -127 -225 0
-1058 -155 -134 -225 0
-1058 -155 288 414 666 309 435 687 0
-1058 -92 -148 -197 0
-1058 -92 -155 -204 0
-1064 246 0
-1064 -162 0
-1064 -148 100 0
-1064 -148 198 0
-1064 -148 -1 0
-1064 -148 -8 0
-1064 -148 -29 0
-1064 -148 -36 0
-1064 -148 -15 -155 0
-1064 -148 -22 -155 0
-1064 -148 -57 -176 0
-1064 -148 -64 -176 0
-1064 -148 -120 -218 0
-1064 -148 -127 -218 0
-1064 -148 -134 -218 0
-1064 -148 -141 -218 0
-1064 -148 302 428 680 323 449 701 0
-1064 -155 100 0
-1064 -155 205 0
-1064 -155 -1 0
-1064 -155 -8 0
-1064 -155 -29 0
-1064 -155 -36 0
-1064 -155 -15 -162 0
-1064 -155 -22 -162 0
-1064 -155 -57 -183 0
-1064 -155 -64 -183 0
-1064 -155 -120 -225 0
-1064 -155 -127 -225 0
-1064 -155 -134 -225 0
-1064 -155 -141 -225 0
-1064 -155 309 435 687 330 456 708 0
-1064 -99 -148 -197 0
-1064 -99 -155 -204 0
-1070 246 0
-1070 -162 0
-1070 -148 107 0
-1070 -148 198 0
-1070 -148 -1 0
-1070 -148 -8 0
-1070 -148 -15 0
-1070 -148 -36 0
-1070 -148 -22 -155 0
-1070 -148 -29 -155 0
-1070 -148 -64 -176 0
-1070 -148 -71 -176 0
-1070 -148 -127 -218 0
-1070 -148 -134 -218 0
-1070 -148 -141 -218 0
-1070 -148 323 449 701 344 470 722 0
-1070 -155 107 0
-1070 -155 205 0
-1070 -155 -1 0
-1070 -155 -8 0
-1070 -155 -15 0
-1070 -155 -36 0
-1070 -155 -22 -162 0
-1070 -155 -29 -162 0
-1070 -155 -64 -183 0
-1070 -155 -71 -183 0
-1070 -155 -127 -225 0
-1070 -155 -134 -225 0
-1070 -155 -141 -225 0
-1070 -155 330 456 708 351 477 729 0
-1070 -106 -148 -197 0
-1070 -106 -155 -204 0
-1076 246 0
-1076 -162 0
-1076 -148 114 0
-1076 -148 198 0
-1076 -148 -1 0
-1076 -148 -8 0
-1076 -148 -15 0
-1076 -148 -22 0
-1076 -148 -29 -155 0
-1076 -148 -36 -155 0
-1076 -148 -71 -176 0
-1076 -148 -78 -176 0
-1076 -148 -134 -218 0
-1076 -148 -141 -218 0
-1076 -148 344 470 722 365 491 743 0
-1076 -155 114 0
-1076 -155 205 0
-1076 -155 -1 0
-1076 -155 -8 0
-1076 -155 -15 0
-1076 -155 -22 0
-1076 -155 -29 -162 0
-1076 -155 -36 -162 0
-1076 -155 -71 -183 0
-1076 -155 -78 -183 0
-1076 -155 -134 -225 0
-1076 -155 -141 -225 0
-1076 -155 351 477 729 372 498 750 0
-1076 -113 -148 -197 0
-1076 -113 -155 -204 0
-1082 246 0
-1082 -183 0
-1082 -169 86 0
-1082 -169 198 0
-1082 -169 -57 0
-1082 -169 -64 0
-1082 -169 -71 0
-1082 -169 -78 0
-1082 -169 -1 -155 0
-1082 -169 -8 -155 0
-1082 -169 -43 -176 0
-1082 -169 -50 -176 0
-1082 -169 -120 -218 0
-1082 -169 -127 -218 0
-1082 -169 260 386 638 281 407 659 0
-1082 -176 86 0
-1082 -176 205 0
-1082 -176 -57 0
-1082 -176 -64 0
-1082 -176 -71 0
-1082 -176 -78 0
-1082 -176 -1 -162 0
-1082 -176 -8 -162 0
-1082 -176 -43 -183 0
-1082 -176 -50 -183 0
-1082 -176 -120 -225 0
-1082 -176 -127 -225 0
-1082 -176 267 393 645 288 414 666 0
-1082 -85 -169 -197 0
-1082 -85 -176 -204 0
-1088 246 0
-1088 -183 0
-1088 -169 93 0
-1088 -169 198 0
-1088 -169 -43 0
-1088 -169 -64 0
-1088 -169 -71 0
-1088 -169 -78 0
-1088 -169 -8 -155 0
-1088 -169 -15 -155 0
-1088 -169 -50 -176 0
-1088 -169 -57 -176 0
-1088 -169 -120 -218 0
-1088 -169 -127 -218 0
-1088 -169 -134 -218 0
-1088 -169 281 407 659 302 428 680 0
-1088 -176 93 0
-1088 -176 205 0
-1088 -176 -43 0
-1088 -176 -64 0
-1088 -176 -71 0
-1088 -176 -78 0
-1088 -176 -8 -162 0
-1088 -176 -15 -162 0
-1088 -176 -50 -183 0
-1088 -176 -57 -183 0
-1088 -176 -120 -225 0
-1088 -176 -127 -225 0
-1088 -176 -134 -225 0
-1088 -176 288 414 666 309 435 687 0
-1088 -92 -169 -197 0
-1088 -92 -176 -204 0
-1094 246 0
-1094 -183 0
-1094 -169 100 0
-1094 -169 198 0
-1094 -169 -43 0
-1094 -169 -50 0
-1094 -169 -71 0
-1094 -169 -78 0
-1094 -169 -15 -155 0
-1094 -169 -22 -155 0
-1094 -169 -57 -176 0
-1094 -169 -64 -176 0
-1094 -169 -120 -218 0
-1094 -169 -127 -218 0
-1094 -169 -134 -218 0
-1094 -169 -141 -218 0
-1094 -169 302 428 680 323 449 701 0
-1094 -176 100 0
-1094 -176 205 0
-1094 -176 -43 0
-1094 -176 -50 0
-1094 -176 -71 0
-1094 -176 -78 0
-1094 -176 -15 -162 0
-1094 -176 -22 -162 0
-1094 -176 -57 -183 0
-1094 -176 -64 -183 0
-1094 -176 -120 -225 0
-1094 -176 -127 -225 0
-1094 -176 -134 -225 0
-1094 -176 -141 -225 0
-1094 -176 309 435 687 330 456 708 0
-1094 -99 -169 -197 0
-1094 -99 -176 -204 0
-1100 246 0
-1100 -183 0
-1100 -169 107 0
-1100 -169 198 0
-1100 -169 -43 0
-1100 -169 -50 0
-1100 -169 -57 0
-1100 -169 -78 0
-1100 -169 -22 -155 0
-1100 -169 -29 -155 0
-1100 -169 -64 -176 0
-1100 -169 -71 -176 0
-1100 -169 -127 -218 0
-1100 -169 -134 -218 0
-1100 -169 -141 -218 0
-1100 -169 323 449 701 344 470 722 0
-1100 -176 107 0
-1100 -176 205 0
-1100 -176 -43 0
-1100 -176 -50 0
-1100 -176 -57 0
-1100 -176 -78 0
-1100 -176 -22 -162 0
-1100 -176 -29 -162 0
-1100 -176 -64 -183 0
-1100 -176 -71 -183 0
-1100 -176 -127 -225 0
-1100 -176 -134 -225 0
-1100 -176 -141 -225 0
-1100 -176 330 456 708 351 477 729 0
-1100 -106 -169 -197 0
-1100 -106 -176 -204 0
-1106 246 0
-1106 -183 0
-1106 -169 114 0
-1106 -169 198 0
-1106 -169 -43 0
-1106 -169 -50 0
-1106 -169 -57 0
-1106 -169 -64 0
-1106 -169 -29 -155 0
-1106 -169 -36 -155 0
-1106 -169 -71 -176 0
-1106 -169 -78 -176 0
-1106 -169 -134 -218 0
-1106 -169 -141 -218 0
-1106 -169 344 470 722 365 491 743 0
-1106 -176 114 0
-1106 -176 205 0
-1106 -176 -43 0
-1106 -176 -50 0
-1106 -176 -57 0
-1106 -176 -64 0
-1106 -176 -29 -162 0
-1106 -176 -36 -162 0
-1106 -176 -71 -183 0
-1106 -176 -78 -183 0
-1106 -176 -134 -225 0
-1106 -176 -141 -225 0
-1106 -176 351 477 729 372 498 750 0
-1106 -113 -169 -197 0
-1106 -113 -176 -204 0
-1112 246 0
-1112 -225 0
-1112 -211 86 0
-1112 -211 198 0
-1112 -211 -134 0
-1112 -211 -141 0
-1112 -211 -1 -155 0
-1112 -211 -8 -155 0
-1112 -211 -43 -176 0
-1112 -211 -50 -176 0
-1112 -211 -120 -218 0
-1112 -211 -127 -218 0
-1112 -211 260 386 638 281 407 659 0
-1112 -218 86 0
-1112 -218 205 0
-1112 -218 -134 0
-1112 -218 -141 0
-1112 -218 -1 -162 0
-1112 -218 -8 -162 0
-1112 -218 -43 -183 0
-1112 -218 -50 -183 0
-1112 -218 -120 -225 0
-1112 -218 -127 -225 0
-1112 -218 267 393 645 288 414 666 0
-1112 -85 -211 -197 0
-1112 -85 -218 -204 0
-1118 246 0
-1118 -225 0
-1118 -211 93 0
-1118 -211 198 0
-1118 -211 -141 0
-1118 -211 -8 -155 0
-1118 -211 -15 -155 0
-1118 -211 -50 -176 0
-1118 -211 -57 -176 0
-1118 -211 -120 -218 0
-1118 -211 -127 -218 0
-1118 -211 -134 -218 0
-1118 -211 281 407 659 302 428 680 0
-1118 -218 93 0
-1118 -218 205 0
-1118 -218 -141 0
-1118 -218 -8 -162 0
-1118 -218 -15 -162 0
-1118 -218 -50 -183 0
-1118 -218 -57 -183 0
-1118 -218 -120 -225 0
-1118 -218 -127 -225 0
-1118 -218 -134 -225 0
-1118 -218 288 414 666 309 435 687 0
-1118 -92 -211 -197 0
-1118 -92 -218 -204 0
-1124 246 0
-1124 -225 0
-1124 -211 100 0
-1124 -211 198 0
-1124 -211 -15 -155 0
-1124 -211 -22 -155 0
-1124 -211 -57 -176 0
-1124 -211 -64 -176 0
-1124 -211 -120 -218 0
-1124 -211 -127 -218 0
-1124 -211 -134 -218 0
-1124 -211 -141 -218 0
-1124 -211 302 428 680 323 449 701 0
-1124 -218 100 0
-1124 -218 205 0
-1124 -218 -15 -162 0
-1124 -218 -22 -162 0
-1124 -218 -57 -183 0
-1124 -218 -64 -183 0
-1124 -218 -120 -225 0
-1124 -218 -127 -225 0
-1124 -218 -134 -225 0
-1124 -218 -141 -225 0
-1124 -218 309 435 687 330 456 708 0
-1124 -99 -211 -197 0
-1124 -99 -218 -204 0
-1130 246 0
-1130 -225 0
-1130 -211 107 0
-1130 -211 198 0
-1130 -211 -120 0
-1130 -211 -22 -155 0
-1130 -211 -29 -155 0
-1130 -211 -64 -176 0
-1130 -211 -71 -176 0
-1130 -211 -127 -218 0
-1130 -211 -134 -218 0
-1130 -211 -141 -218 0
-1130 -211 323 449 701 344 470 722 0
-1130 -218 107 0
-1130 -218 205 0
-1130 -218 -120 0
-1130 -218 -22 -162 0
-1130 -218 -29 -162 0
-1130 -218 -64 -183 0
-1130 -218 -71 -183 0
-1130 -218 -127 -225 0
-1130 -218 -134 -225 0
-1130 -218 -141 -225 0
-1130 -218 330 456 708 351 477 729 0
-1130 -106 -211 -197 0
-1130 -106 -218 -204 0
-1136 246 0
-1136 -225 0
-1136 -211 114 0
-1136 -211 198 0
-1136 -211 -120 0
-1136 -211 -127 0
-1136 -211 -29 -155 0
-1136 -211 -36 -155 0
-1136 -211 -71 -176 0
-1136 -211 -78 -176 0
-1136 -211 -134 -218 0
-1136 -211 -141 -218 0
-1136 -211 344 470 722 365 491 743 0
-1136 -218 114 0
-1136 -218 205 0
-1136 -218 -120 0
-1136 -218 -127 0
-1136 -218 -29 -162 0
-1136 -218 -36 -162 0
-1136 -218 -71 -183 0
-1136 -218 -78 -183 0
-1136 -218 -134 -225 0
-1136 -218 -141 -225 0
-1136 -218 351 477 729 372 498 750 0
-1136 -113 -211 -197 0
-1136 -113 -218 -204 0
-1142 246 0
-1142 86 0
-1142 191 0
-1142 -85 -190 0
-1142 -1 -148 0
-1142 -8 -148 0
-1142 -43 -169 0
-1142 -50 -169 0
-1142 -120 -211 0
-1142 -127 -211 0
-1148 246 0
-1148 93 0
-1148 191 0
-1148 -92 -190 0
-1148 -8 -148 0
-1148 -15 -148 0
-1148 -50 -169 0
-1148 -57 -169 0
-1148 -120 -211 0
-1148 -127 -211 0
-1148 -134 -211 0
-1154 246 0
-1154 100 0
-1154 191 0
-1154 -99 -190 0
-1154 -15 -148 0
-1154 -22 -148 0
-1154 -57 -169 0
-1154 -64 -169 0
-1154 -120 -211 0
-1154 -127 -211 0
-1154 -134 -211 0
-1154 -141 -211 0
-1160 246 0
-1160 107 0
-1160 191 0
-1160 -106 -190 0
-1160 -22 -148 0
-1160 -29 -148 0
-1160 -64 -169 0
-1160 -71 -169 0
-1160 -127 -211 0
-1160 -134 -211 0
-1160 -141 -211 0
-1166 246 0
-1166 114 0
-1166 191 0
-1166 -113 -190 0
-1166 -29 -148 0
-1166 -36 -148 0
-1166 -71 -169 0
-1166 -78 -169 0
-1166 -134 -211 0
-1166 -141 -211 0
-1172 253 0
-1172 -162 0
-1172 -148 121 0
-1172 -148 219 0
-1172 -148 -22 0
-1172 -148 -29 0
-1172 -148 -36 0
-1172 -148 -1 -155 0
-1172 -148 -8 -155 0
-1172 -148 -15 -155 0
-1172 -148 -43 -176 0
-1172 -148 -50 -176 0
-1172 -148 -57 -176 0
-1172 -148 -85 -197 0
-1172 -148 -92 -197 0
-1172 -148 -99 -197 0
-1172 -148 260 386 512 281 407 533 0
-1172 -148 260 386 512 302 428 554 0
-1172 -148 281 407 533 302 428 554 0
-1172 -155 121 0
-1172 -155 226 0
-1172 -155 -22 0
-1172 -155 -29 0
-1172 -155 -36 0
-1172 -155 -1 -162 0
-1172 -155 -8 -162 0
-1172 -155 -15 -162 0
-1172 -155 -43 -183 0
-1172 -155 -50 -183 0
-1172 -155 -57 -183 0
-1172 -155 -85 -204 0
-1172 -155 -92 -204 0
-1172 -155 -99 -204 0
-1172 -155 267 393 519 288 414 540 0
-1172 -155 267 393 519 309 435 561 0
-1172 -155 288 414 540 309 435 561 0
-1172 -120 -148 -218 0
-1172 -120 -155 -225 0
-1178 253 0
-1178 -162 0
-1178 -148 128 0
-1178 -148 219 0
-1178 -148 -1 0
-1178 -148 -29 0
-1178 -148 -36 0
-1178 -148 -8 -155 0
-1178 -148 -15 -155 0
-1178 -148 -22 -155 0
-1178 -148 -50 -176 0
-1178 -148 -57 -176 0
-1178 -148 -64 -176 0
-1178 -148 -85 -197 0
-1178 -148 -92 -197 0
-1178 -148 -99 -197 0
-1178 -148 -106 -197 0
-1178 -148 281 407 533 302 428 554 0
-1178 -148 281 407 533 323 449 575 0
-1178 -148 302 428 554 323 449 575 0
-1178 -155 128 0
-1178 -155 226 0
-1178 -155 -1 0
-1178 -155 -29 0
-1178 -155 -36 0
-1178 -155 -8 -162 0
-1178 -155 -15 -162 0
-1178 -155 -22 -162 0
-1178 -155 -50 -183 0
-1178 -155 -57 -183 0
-1178 -155 -64 -183 0
-1178 -155 -85 -204 0
-1178 -155 -92 -204 0
-1178 -155 -99 -204 0
-1178 -155 -106 -204 0
-1178 -155 288 414 540 309 435 561 0
-1178 -155 288 414 540 330 456 582 0
-1178 -155 309 435 561 330 456 582 0
-1178 -127 -148 -218 0
-1178 -127 -155 -225 0
-1184 253 0
-1184 -162 0
-1184 -148 135 0
-1184 -148 219 0
-1184 -148 -1 0
-1184 -148 -8 0
-1184 -148 -36 0
-1184 -148 -15 -155 0
-1184 -148 -22 -155 0
-1184 -148 -29 -155 0
-1184 -148 -57 -176 0
-1184 -148 -64 -176 0
-1184 -148 -71 -176 0
-1184 -148 -92 -197 0
-1184 -148 -99 -197 0
-1184 -148 -106 -197 0
-1184 -148 -113 -197 0
-1184 -148 302 428 554 323 449 575 0
-1184 -148 302 428 554 344 470 596 0
-1184 -148 323 449 575 344 470 596 0
-1184 -155 135 0
-1184 -155 226 0
-1184 -155 -1 0
-1184 -155 -8 0
-1184 -155 -36 0
-1184 -155 -15 -162 0
-1184 -155 -22 -162 0
-1184 -155 -29 -162 0
-1184 -155 -57 -183 0
-1184 -155 -64 -183 0
-1184 -155 -71 -183 0
-1184 -155 -92 -204 0
-1184 -155 -99 -204 0
-1184 -155 -106 -204 0
-1184 -155 -113 -204 0
-1184 -155 309 435 561 330 456 582 0
-1184 -155 309 435 561 351 477 603 0
-1184 -155 330 456 582 351 477 603 0
-1184 -134 -148 -218 0
-1184 -134 -155 -225 0
-1190 253 0
-1190 -162 0
-1190 -148 142 0
-1190 -148 219 0
-1190 -148 -1 0
-1190 -148 -8 0
-1190 -148 -15 0
-1190 -148 -22 -155 0
-1190 -148 -29 -155 0
-1190 -148 -36 -155 0
-1190 -148 -64 -176 0
-1190 -148 -71 -176 0
-1190 -148 -78 -176 0
-1190 -148 -99 -197 0
-1190 -148 -106 -197 0
-1190 -148 -113 -197 0
-1190 -148 323 449 575 344 470 596 0
-1190 -148 323 449 575 365 491 617 0
-1190 -148 344 470 596 365 491 617 0
-1190 -155 142 0
-1190 -155 226 0
-1190 -155 -1 0
-1190 -155 -8 0
-1190 -155 -15 0
-1190 -155 -22 -162 0
-1190 -155 -29 -162 0
-1190 -155 -36 -162 0
-1190 -155 -64 -183 0
-1190 -155 -71 -183 0
-1190 -155 -78 -183 0
-1190 -155 -99 -204 0
-1190 -155 -106 -204 0
-1190 -155 -113 -204 0
-1190 -155 330 456 582 351 477 603 0
-1190 -155 330 456 582 372 498 624 0
-1190 -155 351 477 603 372 498 624 0
-1190 -141 -148 -218 0
-1190 -141 -155 -225 0
-1196 253 0
-1196 -183 0
-1196 -169 121 0
-1196 -169 219 0
-1196 -169 -64 0
-1196 -169 -71 0
-1196 -169 -78 0
-1196 -169 -1 -155 0
-1196 -169 -8 -155 0
-1196 -169 -15 -155 0
-1196 -169 -43 -176 0
-1196 -169 -50 -176 0
-1196 -169 -57 -176 0
-1196 -169 -85 -197 0
-1196 -169 -92 -197 0
-1196 -169 -99 -197 0
-1196 -169 260 386 512 281 407 533 0
-1196 -169 260 386 512 302 428 554 0
-1196 -169 281 407 533 302 428 554 0
-1196 -176 121 0
-1196 -176 226 0
-1196 -176 -64 0
-1196 -176 -71 0
-1196 -176 -78 0
-1196 -176 -1 -162 0
-1196 -176 -8 -162 0
-1196 -176 -15 -162 0
-1196 -176 -43 -183 0
-1196 -176 -50 -183 0
-1196 -176 -57 -183 0
-1196 -176 -85 -204 0
-1196 -176 -92 -204 0
-1196 -176 -99 -204 0
-1196 -176 267 393 519 288 414 540 0
-1196 -176 267 393 519 309 435 561 0
-1196 -176 288 414 540 309 435 561 0
-1196 -120 -169 -218 0
-1196 -120 -176 -225 0
-1202 253 0
-1202 -183 0
-1202 -169 128 0
-1202 -169 219 0
-1202 -169 -43 0
-1202 -169 -71 0
-1202 -169 -78 0
-1202 -169 -8 -155 0
-1202 -169 -15 -155 0
-1202 -169 -22 -155 0
-1202 -169 -50 -176 0
-1202 -169 -57 -176 0
-1202 -169 -64 -176 0
-1202 -169 -85 -197 0
-1202 -169 -92 -197 0
-1202 -169 -99 -197 0
-1202 -169 -106 -197 0
-1202 -169 281 407 533 302 428 554 0
-1202 -169 281 407 533 323 449 575 0
-1202 -169 302 428 554 323 449 575 0
-1202 -176 128 0
-1202 -176 226 0
-1202 -176 -43 0
-1202 -176 -71 0
-1202 -176 -78 0
-1202 -176 -8 -162 0
-1202 -176 -15 -162 0
-1202 -176 -22 -162 0
-1202 -176 -50 -183 0
-1202 -176 -57 -183 0
-1202 -176 -64 -183 0
-1202 -176 -85 -204 0
-1202 -176 -92 -204 0
-1202 -176 -99 -204 0
-1202 -176 -106 -204 0
-1202 -176 288 414 540 309 435 561 0
-1202 -176 288 414 540 330 456 582 0
-1202 -176 309 435 561 330 456 582 0
-1202 -127 -169 -218 0
-1202 -127 -176 -225 0
-1208 253 0
-1208 -183 0
-1208 -169 135 0
-1208 -169 219 0
-1208 -169 -43 0
-1208 -169 -50 0
-1208 -169 -78 0
-1208 -169 -15 -155 0
-1208 -169 -22 -155 0
-1208 -169 -29 -155 0
-1208 -169 -57 -176 0
-1208 -169 -64 -176 0
-1208 -169 -71 -176 0
-1208 -169 -92 -197 0
-1208 -169 -99 -197 0
-1208 -169 -106 -197 0
-1208 -169 -113 -197 0
-1208 -169 302 428 554 323 449 575 0
-1208 -169 302 428 554 344 470 596 0
-1208 -169 323 449 575 344 470 596 0
-1208 -176 135 0
-1208 -176 226 0
-1208 -176 -43 0
-1208 -176 -50 0
-1208 -176 -78 0
-1208 -176 -15 -162 0
-1208 -176 -22 -162 0
-1208 -176 -29 -162 0
-1208 -176 -57 -183 0
-1208 -176 -64 -183 0
-1208 -176 -71 -183 0
-1208 -176 -92 -204 0
-1208 -176 -99 -204 0
-1208 -176 -106 -204 0
-1208 -176 -113 -204 0
-1208 -176 309 435 561 330 456 582 0
-1208 -176 309 435 561 351 477 603 0
-1208 -176 330 456 582 351 477 603 0
-1208 -134 -169 -218 0
-1208 -134 -176 -225 0
-1214 253 0
-1214 -183 0
-1214 -169 142 0
-1214 -169 219 0
-1214 -169 -43 0
-1214 -169 -50 0
-1214 -169 -57 0
-1214 -169 -22 -155 0
-1214 -169 -29 -155 0
-1214 -169 -36 -155 0
-1214 -169 -64 -176 0
-1214 -169 -71 -176 0
-1214 -169 -78 -176 0
-1214 -169 -99 -197 0
-1214 -169 -106 -197 0
-1214 -169 -113 -197 0
-1214 -169 323 449 575 344 470 596 0
-1214 -169 323 449 575 365 491 617 0
-1214 -169 344 470 596 365 491 617 0
-1214 -176 142 0
-1214 -176 226 0
-1214 -176 -43 0
-1214 -176 -50 0
-1214 -176 -57 0
-1214 -176 -22 -162 0
-1214 -176 -29 -162 0
-1214 -176 -36 -162 0
-1214 -176 -64 -183 0
-1214 -176 -71 -183 0
-1214 -176 -78 -183 0
-1214 -176 -99 -204 0
-1214 -176 -106 -204 0
-1214 -176 -113 -204 0
-1214 -176 330 456 582 351 477 603 0
-1214 -176 330 456 582 372 498 624 0
-1214 -176 351 477 603 372 498 624 0
-1214 -141 -169 -218 0
-1214 -141 -176 -225 0
-1220 253 0
-1220 -204 0
-1220 -190 121 0
-1220 -190 219 0
-1220 -190 -106 0
-1220 -190 -113 0
-1220 -190 -1 -155 0
-1220 -190 -8 -155 0
-1220 -190 -15 -155 0
-1220 -190 -43 -176 0
-1220 -190 -50 -176 0
-1220 -190 -57 -176 0
-1220 -190 -85 -197 0
-1220 -190 -92 -197 0
-1220 -190 -99 -197 0
-1220 -190 260 386 512 281 407 533 0
-1220 -190 260 386 512 302 428 554 0
-1220 -190 281 407 533 302 428 554 0
-1220 -197 121 0
-1220 -197 226 0
-1220 -197 -106 0
-1220 -197 -113 0
-1220 -197 -1 -162 0
-1220 -197 -8 -162 0
-1220 -197 -15 -162 0
-1220 -197 -43 -183 0
-1220 -197 -50 -183 0
-1220 -197 -57 -183 0
-1220 -197 -85 -204 0
-1220 -197 -92 -204 0
-1220 -197 -99 -204 0
-1220 -197 267 393 519 288 414 540 0
-1220 -197 267 393 519 309 435 561 0
-1220 -197 288 414 540 309 435 561 0
-1220 -120 -190 -218 0
-1220 -120 -197 -225 0
-1226 253 0
-1226 -204 0
-1226 -190 128 0
-1226 -190 219 0
-1226 -190 -113 0
-1226 -190 -8 -155 0
-1226 -190 -15 -155 0
-1226 -190 -22 -155 0
-1226 -190 -50 -176 0
-1226 -190 -57 -176 0
-1226 -190 -64 -176 0
-1226 -190 -85 -197 0
-1226 -190 -92 -197 0
-1226 -190 -99 -197 0
-1226 -190 -106 -197 0
-1226 -190 281 407 533 302 428 554 0
-1226 -190 281 407 533 323 449 575 0
-1226 -190 302 428 554 323 449 575 0
-1226 -197 128 0
-1226 -197 226 0
-1226 -197 -113 0
-1226 -197 -8 -162 0
-1226 -197 -15 -162 0
-1226 -197 -22 -162 0
-1226 -197 -50 -183 0
-1226 -197 -57 -183 0
-1226 -197 -64 -183 0
-1226 -197 -85 -204 0
-1226 -197 -92 -204 0
-1226 -197 -99 -204 0
-1226 -197 -106 -204 0
-1226 -197 288 414 540 309 435 561 0
-1226 -197 288 414 540 330 456 582 0
-1226 -197 309 435 561 330 456 582 0
-1226 -127 -190 -218 0
-1226 -127 -197 -225 0
-1232 253 0
-1232 -204 0
-1232 -190 135 0
-1232 -190 219 0
-1232 -190 -85 0
-1232 -190 -15 -155 0
-1232 -190 -22 -155 0
-1232 -190 -29 -155 0
-1232 -190 -57 -176 0
-1232 -190 -64 -176 0
-1232 -190 -71 -176 0
-1232 -190 -92 -197 0
-1232 -190 -99 -197 0
-1232 -190 -106 -197 0
-1232 -190 -113 -197 0
-1232 -190 302 428 554 323 449 575 0
-1232 -190 302 428 554 344 470 596 0
-1232 -190 323 449 575 344 470 596 0
-1232 -197 135 0
-1232 -197 226 0
-1232 -197 -85 0
-1232 -197 -15 -162 0
-1232 -197 -22 -162 0
-1232 -197 -29 -162 0
-1232 -197 -57 -183 0
-1232 -197 -64 -183 0
-1232 -197 -71 -183 0
-1232 -197 -92 -204 0
-1232 -197 -99 -204 0
-1232 -197 -106 -204 0
-1232 -197 -113 -204 0
-1232 -197 309 435 561 330 456 582 0
-1232 -197 309 435 561 351 477 603 0
-1232 -197 330 456 582 351 477 603 0
-1232 -134 -190 -218 0
-1232 -134 -197 -225 0
-1238 253 0
-1238 -204 0
-1238 -190 142 0
-1238 -190 219 0
-1238 -190 -85 0
-1238 -190 -92 0
-1238 -190 -22 -155 0
-1238 -190 -29 -155 0
-1238 -190 -36 -155 0
-1238 -190 -64 -176 0
-1238 -190 -71 -176 0
-1238 -190 -78 -176 0
-1238 -190 -99 -197 0
-1238 -190 -106 -197 0
-1238 -190 -113 -197 0
-1238 -190 323 449 575 344 470 596 0
-1238 -190 323 449 575 365 491 617 0
-1238 -190 344 470 596 365 491 617 0
-1238 -197 142 0
-1238 -197 226 0
-1238 -197 -85 0
-1238 -197 -92 0
-1238 -197 -22 -162 0
-1238 -197 -29 -162 0
-1238 -197 -36 -162 0
-1238 -197 -64 -183 0
-1238 -197 -71 -183 0
-1238 -197 -78 -183 0
-1238 -197 -99 -204 0
-1238 -197 -106 -204 0
-1238 -197 -113 -204 0
-1238 -197 330 456 582 351 477 603 0
-1238 -197 330 456 582 372 498 624 0
-1238 -197 351 477 603 372 498 624 0
-1238 -141 -190 -218 0
-1238 -141 -197 -225 0
-1244 253 0
-1244 121 0
-1244 212 0
-1244 -120 -211 0
-1244 -1 -148 0
-1244 -8 -148 0
-1244 -15 -148 0
-1244 -43 -169 0
-1244 -50 -169 0
-1244 -57 -169 0
-1244 -85 -190 0
-1244 -92 -190 0
-1244 -99 -190 0
-1250 253 0
-1250 128 0
-1250 212 0
-1250 -127 -211 0
-1250 -8 -148 0
-1250 -15 -148 0
-1250 -22 -148 0
-1250 -50 -169 0
-1250 -57 -169 0
-1250 -64 -169 0
-1250 -85 -190 0
-1250 -92 -190 0
-1250 -99 -190 0
-1250 -106 -190 0
-1256 253 0
-1256 135 0
-1256 212 0
-1256 -134 -211 0
-1256 -15 -148 0
-1256 -22 -148 0
-1256 -29 -148 0
-1256 -57 -169 0
-1256 -64 -169 0
-1256 -71 -169 0
-1256 -92 -190 0
-1256 -99 -190 0
-1256 -106 -190 0
-1256 -113 -190 0
-1262 253 0
-1262 142 0
-1262 212 0
-1262 -141 -211 0
-1262 -22 -148 0
-1262 -29 -148 0
-1262 -36 -148 0
-1262 -64 -169 0
-1262 -71 -169 0
-1262 -78 -169 0
-1262 -99 -190 0
-1262 -106 -190 0
-1262 -113 -190 0
765 771 777 783 789 795 801 807 813 819 825 831 837 843 849 855 861 867 873 879 885 891 897 903 909 915 921 927 933 939 945 951 957 963 969 975 981 987 993 999 1005 1011 1017 1023 1029 1035 1041 1047 1053 1059 1065 1071 1077 1083 1089 1095 1101 1107 1113 1119 1125 1131 1137 1143 1149 1155 1161 1167 1173 1179 1185 1191 1197 1203 1209 1215 1221 1227 1233 1239 1245 1251 1257 1263 0
-765 -771 0
-765 -777 0
-765 -783 0
-765 -789 0
-765 -795 0
-765 -801 0
-765 -807 0
-765 -813 0
-765 -819 0
-765 -825 0
-765 -831 0
-765 -837 0
-765 -843 0
-765 -849 0
-765 -855 0
-765 -861 0
-765 -867 0
-765 -873 0
-765 -879 0
-765 -885 0
-765 -891 0
-765 -897 0
-765 -903 0
-765 -909 0
-765 -915 0
-765 -921 0
-765 -927 0
-765 -933 0
-765 -939 0
-765 -945 0
-765 -951 0
-765 -957 0
-765 -963 0
-765 -969 0
-765 -975 0
-765 -981 0
-765 -987 0
-765 -993 0
-765 -999 0
-765 -1005 0
-765 -1011 0
-765 -1017 0
-765 -1023 0
-765 -1029 0
-765 -1035 0
-765 -1041 0
-765 -1047 0
-765 -1053 0
-765 -1059 0
-765 -1065 0
-765 -1071 0
-765 -1077 0
-765 -1083 0
-765 -1089 0
-765 -1095 0
-765 -1101 0
-765 -1107 0
-765 -1113 0
-765 -1119 0
-765 -1125 0
-765 -1131 0
-765 -1137 0
-765 -1143 0
-765 -1149 0
-765 -1155 0
-765 -1161 0
-765 -1167 0
-765 -1173 0
-765 -1179 0
-765 -1185 0
-765 -1191 0
-765 -1197 0
-765 -1203 0
-765 -1209 0
-765 -1215 0
-765 -1221 0
-765 -1227 0
-765 -1233 0
-765 -1239 0
-765 -1245 0
-765 -1251 0
-765 -1257 0
-765 -1263 0
-771 -777 0
-771 -783 0
-771 -789 0
-771 -795 0
-771 -801 0
-771 -807 0
-771 -813 0
-771 -819 0
-771 -825 0
-771 -831 0
-771 -837 0
-771 -843 0
-771 -849 0
-771 -855 0
-771 -861 0
-771 -867 0
-771 -873 0
-771 -879 0
-771 -885 0
-771 -891 0
-771 -897 0
-771 -903 0
-771 -909 0
-771 -915 0
-771 -921 0
-771 -927 0
-771 -933 0
-771 -939 0
-771 -945 0
-771 -951 0
-771 -957 0
-771 -963 0
-771 -969 0
-771 -975 0
-771 -981 0
-771 -987 0
-771 -993 0
-771 -999 0
-771 -1005 0
-771 -1011 0
-771 -1017 0
-771 -1023 0
-771 -1029 0
-771 -1035 0
-771 -1041 0
-771 -1047 0
-771 -1053 0
-771 -1059 0
-771 -1065 0
-771 -1071 0
-771 -1077 0
-771 -1083 0
-771 -1089 0
-771 -1095 0
-771 -1101 0
-771 -1107 0
-771 -1113 0
-771 -1119 0
-771 -1125 0
-771 -1131 0
-771 -1137 0
-771 -1143 0
-771 -1149 0
-771 -1155 0
-771 -1161 0
-771 -1167 0
-771 -1173 0
-771 -1179 0
-771 -1185 0
-771 -1191 0
-771 -1197 0
-771 -1203 0
-771 -1209 0
-771 -1215 0
-771 -1221 0
-771 -1227 0
-771 -1233 0
-771 -1239 0
-771 -1245 0
-771 -1251 0
-771 -1257 0
-771 -1263 0
-777 -783 0
-777 -789 0
-777 -795 0
-777 -801 0
-777 -807 0
-777 -813 0
-777 -819 0
-777 -825 0
-777 -831 0
-777 -837 0
-777 -843 0
-777 -849 0
-777 -855 0
-777 -861 0
-777 -867 0
-777 -873 0
-777 -879 0
-777 -885 0
-777 -891 0
-777 -897 0
-777 -903 0
-777 -909 0
-777 -915 0
-777 -921 0
-777 -927 0
-777 -933 0
-777 -939 0
-777 -945 0
-777 -951 0
-777 -957 0
-777 -963 0
-777 -969 0
-777 -975 0
-777 -981 0
-777 -987 0
-777 -993 0
-777 -999 0
-777 -1005 0
-777 -1011 0
-777 -1017 0
-777 -1023 0
-777 -1029 0
-777 -1035 0
-777 -1041 0
-777 -1047 0
-777 -1053 0
-777 -1059 0
-777 -1065 0
-777 -1071 0
-777 -1077 0
-777 -1083 0
-777 -1089 0
-777 -1095 0
-777 -1101 0
-777 -1107 0
-777 -1113 0
-777 -1119 0
-777 -1125 0
-777 -1131 0
-777 -1137 0
-777 -1143 0
-777 -1149 0
-777 -1155 0
-777 -1161 0
-777 -1167 0
-777 -1173 0
-777 -1179 0
-777 -1185 0
-777 -1191 0
-777 -1197 0
-777 -1203 0
-777 -1209 0
-777 -1215 0
-777 -1221 0
-777 -1227 0
-777 -1233 0
-777 -1239 0
-777 -1245 0
-777 -1251 0
-777 -1257 0
-777 -1263 0
-783 -789 0
-783 -795 0
-783 -801 0
-783 -807 0
-783 -813 0
-783 -819 0
-783 -825 0
-783 -831 0
-783 -837 0
-783 -843 0
-783 -849 0
-783 -855 0
-783 -861 0
-783 -867 0
-783 -873 0
-783 -879 0
-783 -885 0
-783 -891 0
-783 -897 0
-783 -903 0
-783 -909 0
-783 -915 0
-783 -921 0
-783 -927 0
-783 -933 0
-783 -939 0
-783 -945 0
-783 -951 0
-783 -957 0
-783 -963 0
-783 -969 0
-783 -975 0
-783 -981 0
-783 -987 0
-783 -993 0
-783 -999 0
-783 -1005 0
-783 -1011 0
-783 -1017 0
-783 -1023 0
-783 -1029 0
-783 -1035 0
-783 -1041 0
-783 -1047 0
-783 -1053 0
-783 -1059 0
-783 -1065 0
-783 -1071 0
-783 -1077 0
-783 -1083 0
-783 -1089 0
-783 -1095 0
-783 -1101 0
-783 -1107 0
-783 -1113 0
-783 -1119 0
-783 -1125 0
-783 -1131 0
-783 -1137 0
-783 -1143 0
-783 -1149 0
-783 -1155 0
-783 -1161 0
-783 -1167 0
-783 -1173 0
-783 -1179 0
-783 -1185 0
-783 -1191 0
-783 -1197 0
-783 -1203 0
-783 -1209 0
-783 -1215 0
-783 -1221 0
-783 -1227 0
-783 -1233 0
-783 -1239 0
-783 -1245 0
-783 -1251 0
-783 -1257 0
-783 -1263 0
-789 -795 0
-789 -801 0
-789 -807 0
-789 -813 0
-789 -819 0
-789 -825 0
-789 -831 0
-789 -837 0
-789 -843 0
-789 -849 0
-789 -855 0
-789 -861 0
-789 -867 0
-789 -873 0
-789 -879 0
-789 -885 0
-789 -891 0
-789 -897 0
-789 -903 0
-789 -909 0
-789 -915 0
-789 -921 0
-789 -927 0
-789 -933 0
-789 -939 0
-789 -945 0
-789 -951 0
-789 -957 0
-789 -963 0
-789 -969 0
-789 -975 0
-789 -981 0
-789 -987 0
-789 -993 0
-789 -999 0
-789 -1005 0
-789 -1011 0
-789 -1017 0
-789 -1023 0
-789 -1029 0
-789 -1035 0
-789 -1041 0
-789 -1047 0
-789 -1053 0
-789 -1059 0
-789 -1065 0
-789 -1071 0
-789 -1077 0
-789 -1083 0
-789 -1089 0
-789 -1095 0
-789 -1101 0
-789 -1107 0
-789 -1113 0
-789 -1119 0
-789 -1125 0
-789 -1131 0
-789 -1137 0
-789 -1143 0
-789 -1149 0
-789 -1155 0
-789 -1161 0
-789 -1167 0
-789 -1173 0
-789 -1179 0
-789 -1185 0
-789 -1191 0
-789 -1197 0
-789 -1203 0
-789 -1209 0
-789 -1215 0
-789 -1221 0
-789 -1227 0
-789 -1233 0
-789 -1239 0
-789 -1245 0
-789 -1251 0
-789 -1257 0
-789 -1263 0
-795 -801 0
-795 -807 0
-795 -813 0
-795 -819 0
-795 -825 0
-795 -831 0
-795 -837 0
-795 -843 0
-795 -849 0
-795 -855 0
-795 -861 0
-795 -867 0
-795 -873 0
-795 -879 0
-795 -885 0
-795 -891 0
-795 -897 0
-795 -903 0
-795 -909 0
-795 -915 0
-795 -921 0
-795 -927 0
-795 -933 0
-795 -939 0
-795 -945 0
-795 -951 0
-795 -957 0
-795 -963 0
-795 -969 0
-795 -975 0
-795 -981 0
-795 -987 0
-795 -993 0
-795 -999 0
-795 -1005 0
-795 -1011 0
-795 -1017 0
-795 -1023 0
-795 -1029 0
-795 -1035 0
-795 -1041 0
-795 -1047 0
-795 -1053 0
-795 -1059 0
-795 -1065 0
-795 -1071 0
-795 -1077 0
-795 -1083 0
-795 -1089 0
-795 -1095 0
-795 -1101 0
-795 -1107 0
-795 -1113 0
-795 -1119 0
-795 -1125 0
-795 -1131 0
-795 -1137 0
-795 -1143 0
-795 -1149 0
-795 -1155 0
-795 -1161 0
-795 -1167 0
-795 -1173 0
-795 -1179 0
-795 -1185 0
-795 -1191 0
-795 -1197 0
-795 -1203 0
-795 -1209 0
-795 -1215 0
-795 -1221 0
-795 -1227 0
-795 -1233 0
-795 -1239 0
-795 -1245 0
-795 -1251 0
-795 -1257 0
-795 -1263 0
-801 -807 0
-801 -813 0
-801 -819 0
-801 -825 0
-801 -831 0
-801 -837 0
-801 -843 0
-801 -849 0
-801 -855 0
-801 -861 0
-801 -867 0
-801 -873 0
-801 -879 0
-801 -885 0
-801 -891 0
-801 -897 0
-801 -903 0
-801 -909 0
-801 -915 0
-801 -921 0
-801 -927 0
-801 -933 0
-801 -939 0
-801 -945 0
-801 -951 0
-801 -957 0
-801 -963 0
-801 -969 0
-801 -975 0
-801 -981 0
-801 -987 0
-801 -993 0
-801 -999 0
-801 -1005 0
-801 -1011 0
-801 -1017 0
-801 -1023 0
-801 -1029 0
-801 -1035 0
-801 -1041 0
-801 -1047 0
-801 -1053 0
-801 -1059 0
-801 -1065 0
-801 -1071 0
-801 -1077 0
-801 -1083 0
-801 -1089 0
-801 -1095 0
-801 -1101 0
-801 -1107 0
-801 -1113 0
-801 -1119 0
-801 -1125 0
-801 -1131 0
-801 -1137 0
-801 -1143 0
-801 -1149 0
-801 -1155 0
-801 -1161 0
-801 -1167 0
-801 -1173 0
-801 -1179 0
-801 -1185 0
-801 -1191 0
-801 -1197 0
-801 -1203 0
-801 -1209 0
-801 -1215 0
-801 -1221 0
-801 -1227 0
-801 -1233 0
-801 -1239 0
-801 -1245 0
-801 -1251 0
-801 -1257 0
-801 -1263 0
-807 -813 0
-807 -819 0
-807 -825 0
-807 -831 0
-807 -837 0
-807 -843 0
-807 -849 0
-807 -855 0
-807 -861 0
-807 -867 0
-807 -873 0
-807 -879 0
-807 -885 0
-807 -891 0
-807 -897 0
-807 -903 0
-807 -909 0
-807 -915 0
-807 -921 0
-807 -927 0
-807 -933 0
-807 -939 0
-807 -945 0
-807 -951 0
-807 -957 0
-807 -963 0
-807 -969 0
-807 -975 0
-807 -981 0
-807 -987 0
-807 -993 0
-807 -999 0
-807 -1005 0
-807 -1011 0
-807 -1017 0
-807 -1023 0
-807 -1029 0
-807 -1035 0
-807 -1041 0
-807 -1047 0
-807 -1053 0
-807 -1059 0
-807 -1065 0
-807 -1071 0
-807 -1077 0
-807 -1083 0
-807 -1089 0
-807 -1095 0
-807 -1101 0
-807 -1107 0
-807 -1113 0
-807 -1119 0
-807 -1125 0
-807 -1131 0
-807 -1137 0
-807 -1143 0
-807 -1149 0
-807 -1155 0
-807 -1161 0
-807 -1167 0
-807 -1173 0
-807 -1179 0
-807 -1185 0
-807 -1191 0
-807 -1197 0
-807 -1203 0
-807 -1209 0
-807 -1215 0
-807 -1221 0
-807 -1227 0
-807 -1233 0
-807 -1239 0
-807 -1245 0
-807 -1251 0
-807 -1257 0
-807 -1263 0
-813 -819 0
-813 -825 0
-813 -831 0
-813 -837 0
-813 -843 0
-813 -849 0
-813 -855 0
-813 -861 0
-813 -867 0
-813 -873 0
-813 -879 0
-813 -885 0
-813 -891 0
-813 -897 0
-813 -903 0
-813 -909 0
-813 -915 0
-813 -921 0
-813 -927 0
-813 -933 0
-813 -939 0
-813 -945 0
-813 -951 0
-813 -957 0
-813 -963 0
-813 -969 0
-813 -975 0
-813 -981 0
-813 -987 0
-813 -993 0
-813 -999 0
-813 -1005 0
-813 -1011 0
-813 -1017 0
-813 -1023 0
-813 -1029 0
-813 -1035 0
-813 -1041 0
-813 -1047 0
-813 -1053 0
-813 -1059 0
-813 -1065 0
-813 -1071 0
-813 -1077 0
-813 -1083 0
-813 -1089 0
-813 -1095 0
-813 -1101 0
-813 -1107 0
-813 -1113 0
-813 -1119 0
-813 -1125 0
-813 -1131 0
-813 -1137 0
-813 -1143 0
-813 -1149 0
-813 -1155 0
-813 -1161 0
-813 -1167 0
-813 -1173 0
-813 -1179 0
-813 -1185 0
-813 -1191 0
-813 -1197 0
-813 -1203 0
-813 -1209 0
-813 -1215 0
-813 -1221 0
-813 -1227 0
-813 -1233 0
-813 -1239 0
-813 -1245 0
-813 -1251 0
-813 -1257 0
-813 -1263 0
-819 -825 0
-819 -831 0
-819 -837 0
-819 -843 0
-819 -849 0
-819 -855 0
-819 -861 0
-819 -867 0
-819 -873 0
-819 -879 0
-819 -885 0
-819 -891 0
-819 -897 0
-819 -903 0
-819 -909 0
-819 -915 0
-819 -921 0
-819 -927 0
-819 -933 0
-819 -939 0
-819 -945 0
-819 -951 0
-819 -957 0
-819 -963 0
-819 -969 0
-819 -975 0
-819 -981 0
-819 -987 0
-819 -993 0
-819 -999 0
-819 -1005 0
-819 -1011 0
-819 -1017 0
-819 -1023 0
-819 -1029 0
-819 -1035 0
-819 -1041 0
-819 -1047 0
-819 -1053 0
-819 -1059 0
-819 -1065 0
-819 -1071 0
-819 -1077 0
-819 -1083 0
-819 -1089 0
-819 -1095 0
-819 -1101 0
-819 -1107 0
-819 -1113 0
-819 -1119 0
-819 -1125 0
-819 -1131 0
-819 -1137 0
-819 -1143 0
-819 -1149 0
-819 -1155 0
-819 -1161 0
-819 -1167 0
-819 -1173 0
-819 -1179 0
-819 -1185 0
-819 -1191 0
-819 -1197 0
-819 -1203 0
-819 -1209 0
-819 -1215 0
-819 -1221 0
-819 -1227 0
-819 -1233 0
-819 -1239 0
-819 -1245 0
-819 -1251 0
-819 -1257 0
-819 -1263 0
-825 -831 0
-825 -837 0
-825 -843 0
-825 -849 0
-825 -855 0
-825 -861 0
-825 -867 0
-825 -873 0
-825 -879 0
-825 -885 0
-825 -891 0
-825 -897 0
-825 -903 0
-825 -909 0
-825 -915 0
-825 -921 0
-825 -927 0
-825 -933 0
-825 -939 0
-825 -945 0
-825 -951 0
-825 -957 0
-825 -963 0
-825 -969 0
-825 -975 0
-825 -981 0
-825 -987 0
-825 -993 0
-825 -999 0
-825 -1005 0
-825 -1011 0
-825 -1017 0
-825 -1023 0
-825 -1029 0
-825 -1035 0
-825 -1041 0
-825 -1047 0
-825 -1053 0
-825 -1059 0
-825 -1065 0
-825 -1071 0
-825 -1077 0
-825 -1083 0
-825 -1089 0
-825 -1095 0
-825 -1101 0
-825 -1107 0
-825 -1113 0
-825 -1119 0
-825 -1125 0
-825 -1131 0
-825 -1137 0
-825 -1143 0
-825 -1149 0
-825 -1155 0
-825 -1161 0
-825 -1167 0
-825 -1173 0
-825 -1179 0
-825 -1185 0
-825 -1191 0
-825 -1197 0
-825 -1203 0
-825 -1209 0
-825 -1215 0
-825 -1221 0
-825 -1227 0
-825 -1233 0
-825 -1239 0
-825 -1245 0
-825 -1251 0
-825 -1257 0
-825 -1263 0
-831 -837 0
-831 -843 0
-831 -849 0
-831 -855 0
-831 -861 0
-831 -867 0
-831 -873 0
-831 -879 0
-831 -885 0
-831 -891 0
-831 -897 0
-831 -903 0
-831 -909 0
-831 -915 0
-831 -921 0
-831 -927 0
-831 -933 0
-831 -939 0
-831 -945 0
-831 -951 0
-831 -957 0
-831 -963 0
-831 -969 0
-831 -975 0
-831 -981 0
-831 -987 0
-831 -993 0
-831 -999 0
-831 -1005 0
-831 -1011 0
-831 -1017 0
-831 -1023 0
-831 -1029 0
-831 -1035 0
-831 -1041 0
-831 -1047 0
-831 -1053 0
-831 -1059 0
-831 -1065 0
-831 -1071 0
-831 -1077 0
-831 -1083 0
-831 -1089 0
-831 -1095 0
-831 -1101 0
-831 -1107 0
-831 -1113 0
-831 -1119 0
-831 -1125 0
-831 -1131 0
-831 -1137 0
-831 -1143 0
-831 -1149 0
-831 -1155 0
-831 -1161 0
-831 -1167 0
-831 -1173 0
-831 -1179 0
-831 -1185 0
-831 -1191 0
-831 -1197 0
-831 -1203 0
-831 -1209 0
-831 -1215 0
-831 -1221 0
-831 -1227 0
-831 -1233 0
-831 -1239 0
-831 -1245 0
-831 -1251 0
-831 -1257 0
-831 -1263 0
-837 -843 0
-837 -849 0
-837 -855 0
-837 -861 0
-837 -867 0
-837 -873 0
-837 -879 0
-837 -885 0
-837 -891 0
-837 -897 0
-837 -903 0
-837 -909 0
-837 -915 0
-837 -921 0
-837 -927 0
-837 -933 0
-837 -939 0
-837 -945 0
-837 -951 0
-837 -957 0
-837 -963 0
-837 -969 0
-837 -975 0
-837 -981 0
-837 -987 0
-837 -993 0
-837 -999 0
-837 -1005 0
-837 -1011 0
-837 -1017 0
-837 -1023 0
-837 -1029 0
-837 -1035 0
-837 -1041 0
-837 -1047 0
-837 -1053 0
-837 -1059 0
-837 -1065 0
-837 -1071 0
-837 -1077 0
-837 -1083 0
-837 -1089 0
-837 -1095 0
-837 -1101 0
-837 -1107 0
-837 -1113 0
-837 -1119 0
-837 -1125 0
-837 -1131 0
-837 -1137 0
-837 -1143 0
-837 -1149 0
-837 -1155 0
-837 -1161 0
-837 -1167 0
-837 -1173 0
-837 -1179 0
-837 -1185 0
-837 -1191 0
-837 -1197 0
-837 -1203 0
-837 -1209 0
-837 -1215 0
-837 -1221 0
-837 -1227 0
-837 -1233 0
-837 -1239 0
-837 -1245 0
-837 -1251 0
-837 -1257 0
-837 -1263 0
-843 -849 0
-843 -855 0
-843 -861 0
-843 -867 0
-843 -873 0
-843 -879 0
-843 -885 0
-843 -891 0
-843 -897 0
-843 -903 0
-843 -909 0
-843 -915 0
-843 -921 0
-843 -927 0
-843 -933 0
-843 -939 0
-843 -945 0
-843 -951 0
-843 -957 0
-843 -963 0
-843 -969 0
-843 -975 0
-843 -981 0
-843 -987 0
-843 -993 0
-843 -999 0
-843 -1005 0
-843 -1011 0
-843 -1017 0
-843 -1023 0
-843 -1029 0
-843 -1035 0
-843 -1041 0
-843 -1047 0
-843 -1053 0
-843 -1059 0
-843 -1065 0
-843 -1071 0
-843 -1077 0
-843 -1083 0
-843 -1089 0
-843 -1095 0
-843 -1101 0
-843 -1107 0
-843 -1113 0
-843 -1119 0
-843 -1125 0
-843 -1131 0
-843 -1137 0
-843 -1143 0
-843 -1149 0
-843 -1155 0
-843 -1161 0
-843 -1167 0
-843 -1173 0
-843 -1179 0
-843 -1185 0
-843 -1191 0
-843 -1197 0
-843 -1203 0
-843 -1209 0
-843 -1215 0
-843 -1221 0
-843 -1227 0
-843 -1233 0
-843 -1239 0
-843 -1245 0
-843 -1251 0
-843 -1257 0
-843 -1263 0
-849 -855 0
-849 -861 0
-849 -867 0
-849 -873 0
-849 -879 0
-849 -885 0
-849 -891 0
-849 -897 0
-849 -903 0
-849 -909 0
-849 -915 0
-849 -921 0
-849 -927 0
-849 -933 0
-849 -939 0
-849 -945 0
-849 -951 0
-849 -957 0
-849 -963 0
-849 -969 0
-849 -975 0
-849 -981 0
-849 -987 0
-849 -993 0
-849 -999 0
-849 -1005 0
-849 -1011 0
-849 -1017 0
-849 -1023 0
-849 -1029 0
-849 -1035 0
-849 -1041 0
-849 -1047 0
-849 -1053 0
-849 -1059 0
-849 -1065 0
-849 -1071 0
-849 -1077 0
-849 -1083 0
-849 -1089 0
-849 -1095 0
-849 -1101 0
-849 -1107 0
-849 -1113 0
-849 -1119 0
-849 -1125 0
-849 -1131 0
-849 -1137 0
-849 -1143 0
-849 -1149 0
-849 -1155 0
-849 -1161 0
-849 -1167 0
-849 -1173 0
-849 -1179 0
-849 -1185 0
-849 -1191 0
-849 -1197 0
-849 -1203 0
-849 -1209 0
-849 -1215 0
-849 -1221 0
-849 -1227 0
-849 -1233 0
-849 -1239 0
-849 -1245 0
-849 -1251 0
-849 -1257 0
-849 -1263 0
-855 -861 0
-855 -867 0
-855 -873 0
-855 -879 0
-855 -885 0
-855 -891 0
-855 -897 0
-855 -903 0
-855 -909 0
-855 -915 0
-855 -921 0
-855 -927 0
-855 -933 0
-855 -939 0
-855 -945 0
-855 -951 0
-855 -957 0
-855 -963 0
-855 -969 0
-855 -975 0
-855 -981 0
-855 -987 0
-855 -993 0
-855 -999 0
-855 -1005 0
-855 -1011 0
-855 -1017 0
-855 -1023 0
-855 -1029 0
-855 -1035 0
-855 -1041 0
-855 -1047 0
-855 -1053 0
-855 -1059 0
-855 -1065 0
-855 -1071 0
-855 -1077 0
-855 -1083 0
-855 -1089 0
-855 -1095 0
-855 -1101 0
-855 -1107 0
-855 -1113 0
-855 -1119 0
-855 -1125 0
-855 -1131 0
-855 -1137 0
-855 -1143 0
-855 -1149 0
-855 -1155 0
-855 -1161 0
-855 -1167 0
-855 -1173 0
-855 -1179 0
-855 -1185 0
-855 -1191 0
-855 -1197 0
-855 -1203 0
-855 -1209 0
-855 -1215 0
-855 -1221 0
-855 -1227 0
-855 -1233 0
-855 -1239 0
-855 -1245 0
-855 -1251 0
-855 -1257 0
-855 -1263 0
-861 -867 0
-861 -873 0
-861 -879 0
-861 -885 0
-861 -891 0
-861 -897 0
-861 -903 0
-861 -909 0
-861 -915 0
-861 -921 0
-861 -927 0
-861 -933 0
-861 -939 0
-861 -945 0
-861 -951 0
-861 -957 0
-861 -963 0
-861 -969 0
-861 -975 0
-861 -981 0
-861 -987 0
-861 -993 0
-861 -999 0
-861 -1005 0
-861 -1011 0
-861 -1017 0
-861 -1023 0
-861 -1029 0
-861 -1035 0
-861 -1041 0
-861 -1047 0
-861 -1053 0
-861 -1059 0
-861 -1065 0
-861 -1071 0
-861 -1077 0
-861 -1083 0
-861 -1089 0
-861 -1095 0
-861 -1101 0
-861 -1107 0
-861 -1113 0
-861 -1119 0
-861 -1125 0
-861 -1131 0
-861 -1137 0
-861 -1143 0
-861 -1149 0
-861 -1155 0
-861 -1161 0
-861 -1167 0
-861 -1173 0
-861 -1179 0
-861 -1185 0
-861 -1191 0
-861 -1197 0
-861 -1203 0
-861 -1209 0
-861 -1215 0
-861 -1221 0
-861 -1227 0
-861 -1233 0
-861 -1239 0
-861 -1245 0
-861 -1251 0
-861 -1257 0
-861 -1263 0
-867 -873 0
-867 -879 0
-867 -885 0
-867 -891 0
-867 -897 0
-867 -903 0
-867 -909 0
-867 -915 0
-867 -921 0
-867 -927 0
-867 -933 0
-867 -939 0
-867 -945 0
-867 -951 0
-867 -957 0
-867 -963 0
-867 -969 0
-867 -975 0
-867 -981 0
-867 -987 0
-867 -993 0
-867 -999 0
-867 -1005 0
-867 -1011 0
-867 -1017 0
-867 -1023 0
-867 -1029 0
-867 -1035 0
-867 -1041 0
-867 -1047 0
-867 -1053 0
-867 -1059 0
-867 -1065 0
-867 -1071 0
-867 -1077 0
-867 -1083 0
-867 -1089 0
-867 -1095 0
-867 -1101 0
-867 -1107 0
-867 -1113 0
-867 -1119 0
-867 -1125 0
-867 -1131 0
-867 -1137 0
-867 -1143 0
-867 -1149 0
-867 -1155 0
-867 -1161 0
-867 -1167 0
-867 -1173 0
-867 -1179 0
-867 -1185 0
-867 -1191 0
-867 -1197 0
-867 -1203 0
-867 -1209 0
-867 -1215 0
-867 -1221 0
-867 -1227 0
-867 -1233 0
-867 -1239 0
-867 -1245 0
-867 -1251 0
-867 -1257 0
-867 -1263 0
-873 -879 0
-873 -885 0
-873 -891 0
-873 -897 0
-873 -903 0
-873 -909 0
-873 -915 0
-873 -921 0
-873 -927 0
-873 -933 0
-873 -939 0
-873 -945 0
-873 -951 0
-873 -957 0
-873 -963 0
-873 -969 0
-873 -975 0
-873 -981 0
-873 -987 0
-873 -993 0
-873 -999 0
-873 -1005 0
-873 -1011 0
-873 -1017 0
-873 -1023 0
-873 -1029 0
-873 -1035 0
-873 -1041 0
-873 -1047 0
-873 -1053 0
-873 -1059 0
-873 -1065 0
-873 -1071 0
-873 -1077 0
-873 -1083 0
-873 -1089 0
-873 -1095 0
-873 -1101 0
-873 -1107 0
-873 -1113 0
-873 -1119 0
-873 -1125 0
-873 -1131 0
-873 -1137 0
-873 -1143 0
-873 -1149 0
-873 -1155 0
-873 -1161 0
-873 -1167 0
-873 -1173 0
-873 -1179 0
-873 -1185 0
-873 -1191 0
-873 -1197 0
-873 -1203 0
-873 -1209 0
-873 -1215 0
-873 -1221 0
-873 -1227 0
-873 -1233 0
-873 -1239 0
-873 -1245 0
-873 -1251 0
-873 -1257 0
-873 -1263 0
-879 -885 0
-879 -891 0
-879 -897 0
-879 -903 0
-879 -909 0
-879 -915 0
-879 -921 0
-879 -927 0
-879 -933 0
-879 -939 0
-879 -945 0
-879 -951 0
-879 -957 0
-879 -963 0
-879 -969 0
-879 -975 0
-879 -981 0
-879 -987 0
-879 -993 0
-879 -999 0
-879 -1005 0
-879 -1011 0
-879 -1017 0
-879 -1023 0
-879 -1029 0
-879 -1035 0
-879 -1041 0
-879 -1047 0
-879 -1053 0
-879 -1059 0
-879 -1065 0
-879 -1071 0
-879 -1077 0
-879 -1083 0
-879 -1089 0
-879 -1095 0
-879 -1101 0
-879 -1107 0
-879 -1113 0
-879 -1119 0
-879 -1125 0
-879 -1131 0
-879 -1137 0
-879 -1143 0
-879 -1149 0
-879 -1155 0
-879 -1161 0
-879 -1167 0
-879 -1173 0
-879 -1179 0
-879 -1185 0
-879 -1191 0
-879 -1197 0
-879 -1203 0
-879 -1209 0
-879 -1215 0
-879 -1221 0
-879 -1227 0
-879 -1233 0
-879 -1239 0
-879 -1245 0
-879 -1251 0
-879 -1257 0
-879 -1263 0
-885 -891 0
-885 -897 0
-885 -903 0
-885 -909 0
-885 -915 0
-885 -921 0
-885 -927 0
-885 -933 0
-885 -939 0
-885 -945 0
-885 -951 0
-885 -957 0
-885 -963 0
-885 -969 0
-885 -975 0
-885 -981 0
-885 -987 0
-885 -993 0
-885 -999 0
-885 -1005 0
-885 -1011 0
-885 -1017 0
-885 -1023 0
-885 -1029 0
-885 -1035 0
-885 -1041 0
-885 -1047 0
-885 -1053 0
-885 -1059 0
-885 -1065 0
-885 -1071 0
-885 -1077 0
-885 -1083 0
-885 -1089 0
-885 -1095 0
-885 -1101 0
-885 -1107 0
-885 -1113 0
-885 -1119 0
-885 -1125 0
-885 -1131 0
-885 -1137 0
-885 -1143 0
-885 -1149 0
-885 -1155 0
-885 -1161 0
-885 -1167 0
-885 -1173 0
-885 -1179 0
-885 -1185 0
-885 -1191 0
-885 -1197 0
-885 -1203 0
-885 -1209 0
-885 -1215 0
-885 -1221 0
-885 -1227 0
-885 -1233 0
-885 -1239 0
-885 -1245 0
-885 -1251 0
-885 -1257 0
-885 -1263 0
-891 -897 0
-891 -903 0
-891 -909 0
-891 -915 0
-891 -921 0
-891 -927 0
-891 -933 0
-891 -939 0
-891 -945 0
-891 -951 0
-891 -957 0
-891 -963 0
-891 -969 0
-891 -975 0
-891 -981 0
-891 -987 0
-891 -993 0
-891 -999 0
-891 -1005 0
-891 -1011 0
-891 -1017 0
-891 -1023 0
-891 -1029 0
-891 -1035 0
-891 -1041 0
-891 -1047 0
-891 -1053 0
-891 -1059 0
-891 -1065 0
-891 -1071 0
-891 -1077 0
-891 -1083 0
-891 -1089 0
-891 -1095 0
-891 -1101 0
-891 -1107 0
-891 -1113 0
-891 -1119 0
-891 -1125 0
-891 -1131 0
-891 -1137 0
-891 -1143 0
-891 -1149 0
-891 -1155 0
-891 -1161 0
-891 -1167 0
-891 -1173 0
-891 -1179 0
-891 -1185 0
-891 -1191 0
-891 -1197 0
-891 -1203 0
-891 -1209 0
-891 -1215 0
-891 -1221 0
-891 -1227 0
-891 -1233 0
-891 -1239 0
-891 -1245 0
-891 -1251 0
-891 -1257 0
-891 -1263 0
-897 -903 0
-897 -909 0
-897 -915 0
-897 -921 0
-897 -927 0
-897 -933 0
-897 -939 0
-897 -945 0
-897 -951 0
-897 -957 0
-897 -963 0
-897 -969 0
-897 -975 0
-897 -981 0
-897 -987 0
-897 -993 0
-897 -999 0
-897 -1005 0
-897 -1011 0
-897 -1017 0
-897 -1023 0
-897 -1029 0
-897 -1035 0
-897 -1041 0
-897 -1047 0
-897 -1053 0
-897 -1059 0
-897 -1065 0
-897 -1071 0
-897 -1077 0
-897 -1083 0
-897 -1089 0
-897 -1095 0
-897 -1101 0
-897 -1107 0
-897 -1113 0
-897 -1119 0
-897 -1125 0
-897 -1131 0
-897 -1137 0
-897 -1143 0
-897 -1149 0
-897 -1155 0
-897 -1161 0
-897 -1167 0
-897 -1173 0
-897 -1179 0
-897 -1185 0
-897 -1191 0
-897 -1197 0
-897 -1203 0
-897 -1209 0
-897 -1215 0
-897 -1221 0
-897 -1227 0
-897 -1233 0
-897 -1239 0
-897 -1245 0
-897 -1251 0
-897 -1257 0
-897 -1263 0
-903 -909 0
-903 -915 0
-903 -921 0
-903 -927 0
-903 -933 0
-903 -939 0
-903 -945 0
-903 -951 0
-903 -957 0
-903 -963 0
-903 -969 0
-903 -975 0
-903 -981 0
-903 -987 0
-903 -993 0
-903 -999 0
-903 -1005 0
-903 -1011 0
-903 -1017 0
-903 -1023 0
-903 -1029 0
-903 -1035 0
-903 -1041 0
-903 -1047 0
-903 -1053 0
-903 -1059 0
-903 -1065 0
-903 -1071 0
-903 -1077 0
-903 -1083 0
-903 -1089 0
-903 -1095 0
-903 -1101 0
-903 -1107 0
-903 -1113 0
-903 -1119 0
-903 -1125 0
-903 -1131 0
-903 -1137 0
-903 -1143 0
-903 -1149 0
-903 -1155 0
-903 -1161 0
-903 -1167 0
-903 -1173 0
-903 -1179 0
-903 -1185 0
-903 -1191 0
-903 -1197 0
-903 -1203 0
-903 -1209 0
-903 -1215 0
-903 -1221 0
-903 -1227 0
-903 -1233 0
-903 -1239 0
-903 -1245 0
-903 -1251 0
-903 -1257 0
-903 -1263 0
-909 -915 0
-909 -921 0
-909 -927 0
-909 -933 0
-909 -939 0
-909 -945 0
-909 -951 0
-909 -957 0
-909 -963 0
-909 -969 0
-909 -975 0
-909 -981 0
-909 -987 0
-909 -993 0
-909 -999 0
-909 -1005 0
-909 -1011 0
-909 -1017 0
-909 -1023 0
-909 -1029 0
-909 -1035 0
-909 -1041 0
-909 -1047 0
-909 -1053 0
-909 -1059 0
-909 -1065 0
-909 -1071 0
-909 -1077 0
-909 -1083 0
-909 -1089 0
-909 -1095 0
-909 -1101 0
-909 -1107 0
-909 -1113 0
-909 -1119 0
-909 -1125 0
-909 -1131 0
-909 -1137 0
-909 -1143 0
-909 -1149 0
-909 -1155 0
-909 -1161 0
-909 -1167 0
-909 -1173 0
-909 -1179 0
-909 -1185 0
-909 -1191 0
-909 -1197 0
-909 -1203 0
-909 -1209 0
-909 -1215 0
-909 -1221 0
-909 -1227 0
-909 -1233 0
-909 -1239 0
-909 -1245 0
-909 -1251 0
-909 -1257 0
-909 -1263 0
-915 -921 0
-915 -927 0
-915 -933 0
-915 -939 0
-915 -945 0
-915 -951 0
-915 -957 0
-915 -963 0
-915 -969 0
-915 -975 0
-915 -981 0
-915 -987 0
-915 -993 0
-915 -999 0
-915 -1005 0
-915 -1011 0
-915 -1017 0
-915 -1023 0
-915 -1029 0
-915 -1035 0
-915 -1041 0
-915 -1047 0
-915 -1053 0
-915 -1059 0
-915 -1065 0
-915 -1071 0
-915 -1077 0
-915 -1083 0
-915 -1089 0
-915 -1095 0
-915 -1101 0
-915 -1107 0
-915 -1113 0
-915 -1119 0
-915 -1125 0
-915 -1131 0
-915 -1137 0
-915 -1143 0
-915 -1149 0
-915 -1155 0
-915 -1161 0
-915 -1167 0
-915 -1173 0
-915 -1179 0
-915 -1185 0
-915 -1191 0
-915 -1197 0
-915 -1203 0
-915 -1209 0
-915 -1215 0
-915 -1221 0
-915 -1227 0
-915 -1233 0
-915 -1239 0
-915 -1245 0
-915 -1251 0
-915 -1257 0
-915 -1263 0
-921 -927 0
-921 -933 0
-921 -939 0
-921 -945 0
-921 -951 0
-921 -957 0
-921 -963 0
-921 -969 0
-921 -975 0
-921 -981 0
-921 -987 0
-921 -993 0
-921 -999 0
-921 -1005 0
-921 -1011 0
-921 -1017 0
-921 -1023 0
-921 -1029 0
-921 -1035 0
-921 -1041 0
-921 -1047 0
-921 -1053 0
-921 -1059 0
-921 -1065 0
-921 -1071 0
-921 -1077 0
-921 -1083 0
-921 -1089 0
-921 -1095 0
-921 -1101 0
-921 -1107 0
-921 -1113 0
-921 -1119 0
-921 -1125 0
-921 -1131 0
-921 -1137 0
-921 -1143 0
-921 -1149 0
-921 -1155 0
-921 -1161 0
-921 -1167 0
-921 -1173 0
-921 -1179 0
-921 -1185 0
-921 -1191 0
-921 -1197 0
-921 -1203 0
-921 -1209 0
-921 -1215 0
-921 -1221 0
-921 -1227 0
-921 -1233 0
-921 -1239 0
-921 -1245 0
-921 -1251 0
-921 -1257 0
-921 -1263 0
-927 -933 0
-927 -939 0
-927 -945 0
-927 -951 0
-927 -957 0
-927 -963 0
-927 -969 0
-927 -975 0
-927 -981 0
-927 -987 0
-927 -993 0
-927 -999 0
-927 -1005 0
-927 -1011 0
-927 -1017 0
-927 -1023 0
-927 -1029 0
-927 -1035 0
-927 -1041 0
-927 -1047 0
-927 -1053 0
-927 -1059 0
-927 -1065 0
-927 -1071 0
-927 -1077 0
-927 -1083 0
-927 -1089 0
-927 -1095 0
-927 -1101 0
-927 -1107 0
-927 -1113 0
-927 -1119 0
-927 -1125 0
-927 -1131 0
-927 -1137 0
-927 -1143 0
-927 -1149 0
-927 -1155 0
-927 -1161 0
-927 -1167 0
-927 -1173 0
-927 -1179 0
-927 -1185 0
-927 -1191 0
-927 -1197 0
-927 -1203 0
-927 -1209 0
-927 -1215 0
-927 -1221 0
-927 -1227 0
-927 -1233 0
-927 -1239 0
-927 -1245 0
-927 -1251 0
-927 -1257 0
-927 -1263 0
-933 -939 0
-933 -945 0
-933 -951 0
-933 -957 0
-933 -963 0
-933 -969 0
-933 -975 0
-933 -981 0
-933 -987 0
-933 -993 0
-933 -999 0
-933 -1005 0
-933 -1011 0
-933 -1017 0
-933 -1023 0
-933 -1029 0
-933 -1035 0
-933 -1041 0
-933 -1047 0
-933 -1053 0
-933 -1059 0
-933 -1065 0
-933 -1071 0
-933 -1077 0
-933 -1083 0
-933 -1089 0
-933 -1095 0
-933 -1101 0
-933 -1107 0
-933 -1113 0
-933 -1119 0
-933 -1125 0
-933 -1131 0
-933 -1137 0
-933 -1143 0
-933 -1149 0
-933 -1155 0
-933 -1161 0
-933 -1167 0
-933 -1173 0
-933 -1179 0
-933 -1185 0
-933 -1191 0
-933 -1197 0
-933 -1203 0
-933 -1209 0
-933 -1215 0
-933 -1221 0
-933 -1227 0
-933 -1233 0
-933 -1239 0
-933 -1245 0
-933 -1251 0
-933 -1257 0
-933 -1263 0
-939 -945 0
-939 -951 0
-939 -957 0
-939 -963 0
-939 -969 0
-939 -975 0
-939 -981 0
-939 -987 0
-939 -993 0
-939 -999 0
-939 -1005 0
-939 -1011 0
-939 -1017 0
-939 -1023 0
-939 -1029 0
-939 -1035 0
-939 -1041 0
-939 -1047 0
-939 -1053 0
-939 -1059 0
-939 -1065 0
-939 -1071 0
-939 -1077 0
-939 -1083 0
-939 -1089 0
-939 -1095 0
-939 -1101 0
-939 -1107 0
-939 -1113 0
-939 -1119 0
-939 -1125 0
-939 -1131 0
-939 -1137 0
-939 -1143 0
-939 -1149 0
-939 -1155 0
-939 -1161 0
-939 -1167 0
-939 -1173 0
-939 -1179 0
-939 -1185 0
-939 -1191 0
-939 -1197 0
-939 -1203 0
-939 -1209 0
-939 -1215 0
-939 -1221 0
-939 -1227 0
-939 -1233 0
-939 -1239 0
-939 -1245 0
-939 -1251 0
-939 -1257 0
-939 -1263 0
-945 -951 0
-945 -957 0
-945 -963 0
-945 -969 0
-945 -975 0
-945 -981 0
-945 -987 0
-945 -993 0
-945 -999 0
-945 -1005 0
-945 -1011 0
-945 -1017 0
-945 -1023 0
-945 -1029 0
-945 -1035 0
-945 -1041 0
-945 -1047 0
-945 -1053 0
-945 -1059 0
-945 -1065 0
-945 -1071 0
-945 -1077 0
-945 -1083 0
-945 -1089 0
-945 -1095 0
-945 -1101 0
-945 -1107 0
-945 -1113 0
-945 -1119 0
-945 -1125 0
-945 -1131 0
-945 -1137 0
-945 -1143 0
-945 -1149 0
-945 -1155 0
-945 -1161 0
-945 -1167 0
-945 -1173 0
-945 -1179 0
-945 -1185 0
-945 -1191 0
-945 -1197 0
-945 -1203 0
-945 -1209 0
-945 -1215 0
-945 -1221 0
-945 -1227 0
-945 -1233 0
-945 -1239 0
-945 -1245 0
-945 -1251 0
-945 -1257 0
-945 -1263 0
-951 -957 0
-951 -963 0
-951 -969 0
-951 -975 0
-951 -981 0
-951 -987 0
-951 -993 0
-951 -999 0
-951 -1005 0
-951 -1011 0
-951 -1017 0
-951 -1023 0
-951 -1029 0
-951 -1035 0
-951 -1041 0
-951 -1047 0
-951 -1053 0
-951 -1059 0
-951 -1065 0
-951 -1071 0
-951 -1077 0
-951 -1083 0
-951 -1089 0
-951 -1095 0
-951 -1101 0
-951 -1107 0
-951 -1113 0
-951 -1119 0
-951 -1125 0
-951 -1131 0
-951 -1137 0
-951 -1143 0
-951 -1149 0
-951 -1155 0
-951 -1161 0
-951 -1167 0
-951 -1173 0
-951 -1179 0
-951 -1185 0
-951 -1191 0
-951 -1197 0
-951 -1203 0
-951 -1209 0
-951 -1215 0
-951 -1221 0
-951 -1227 0
-951 -1233 0
-951 -1239 0
-951 -1245 0
-951 -1251 0
-951 -1257 0
-951 -1263 0
-957 -963 0
-957 -969 0
-957 -975 0
-957 -981 0
-957 -987 0
-957 -993 0
-957 -999 0
-957 -1005 0
-957 -1011 0
-957 -1017 0
-957 -1023 0
-957 -1029 0
-957 -1035 0
-957 -1041 0
-957 -1047 0
-957 -1053 0
-957 -1059 0
-957 -1065 0
-957 -1071 0
-957 -1077 0
-957 -1083 0
-957 -1089 0
-957 -1095 0
-957 -1101 0
-957 -1107 0
-957 -1113 0
-957 -1119 0
-957 -1125 0
-957 -1131 0
-957 -1137 0
-957 -1143 0
-957 -1149 0
-957 -1155 0
-957 -1161 0
-957 -1167 0
-957 -1173 0
-957 -1179 0
-957 -1185 0
-957 -1191 0
-957 -1197 0
-957 -1203 0
-957 -1209 0
-957 -1215 0
-957 -1221 0
-957 -1227 0
-957 -1233 0
-957 -1239 0
-957 -1245 0
-957 -1251 0
-957 -1257 0
-957 -1263 0
-963 -969 0
-963 -975 0
-963 -981 0
-963 -987 0
-963 -993 0
-963 -999 0
-963 -1005 0
-963 -1011 0
-963 -1017 0
-963 -1023 0
-963 -1029 0
-963 -1035 0
-963 -1041 0
-963 -1047 0
-963 -1053 0
-963 -1059 0
-963 -1065 0
-963 -1071 0
-963 -1077 0
-963 -1083 0
-963 -1089 0
-963 -1095 0
-963 -1101 0
-963 -1107 0
-963 -1113 0
-963 -1119 0
-963 -1125 0
-963 -1131 0
-963 -1137 0
-963 -1143 0
-963 -1149 0
-963 -1155 0
-963 -1161 0
-963 -1167 0
-963 -1173 0
-963 -1179 0
-963 -1185 0
-963 -1191 0
-963 -1197 0
-963 -1203 0
-963 -1209 0
-963 -1215 0
-963 -1221 0
-963 -1227 0
-963 -1233 0
-963 -1239 0
-963 -1245 0
-963 -1251 0
-963 -1257 0
-963 -1263 0
-969 -975 0
-969 -981 0
-969 -987 0
-969 -993 0
-969 -999 0
-969 -1005 0
-969 -1011 0
-969 -1017 0
-969 -1023 0
-969 -1029 0
-969 -1035 0
-969 -1041 0
-969 -1047 0
-969 -1053 0
-969 -1059 0
-969 -1065 0
-969 -1071 0
-969 -1077 0
-969 -1083 0
-969 -1089 0
-969 -1095 0
-969 -1101 0
-969 -1107 0
-969 -1113 0
-969 -1119 0
-969 -1125 0
-969 -1131 0
-969 -1137 0
-969 -1143 0
-969 -1149 0
-969 -1155 0
-969 -1161 0
-969 -1167 0
-969 -1173 0
-969 -1179 0
-969 -1185 0
-969 -1191 0
-969 -1197 0
-969 -1203 0
-969 -1209 0
-969 -1215 0
-969 -1221 0
-969 -1227 0
-969 -1233 0
-969 -1239 0
-969 -1245 0
-969 -1251 0
-969 -1257 0
-969 -1263 0
-975 -981 0
-975 -987 0
-975 -993 0
-975 -999 0
-975 -1005 0
-975 -1011 0
-975 -1017 0
-975 -1023 0
-975 -1029 0
-975 -1035 0
-975 -1041 0
-975 -1047 0
-975 -1053 0
-975 -1059 0
-975 -1065 0
-975 -1071 0
-975 -1077 0
-975 -1083 0
-975 -1089 0
-975 -1095 0
-975 -1101 0
-975 -1107 0
-975 -1113 0
-975 -1119 0
-975 -1125 0
-975 -1131 0
-975 -1137 0
-975 -1143 0
-975 -1149 0
-975 -1155 0
-975 -1161 0
-975 -1167 0
-975 -1173 0
-975 -1179 0
-975 -1185 0
-975 -1191 0
-975 -1197 0
-975 -1203 0
-975 -1209 0
-975 -1215 0
-975 -1221 0
-975 -1227 0
-975 -1233 0
-975 -1239 0
-975 -1245 0
-975 -1251 0
-975 -1257 0
-975 -1263 0
-981 -987 0
-981 -993 0
-981 -999 0
-981 -1005 0
-981 -1011 0
-981 -1017 0
-981 -1023 0
-981 -1029 0
-981 -1035 0
-981 -1041 0
-981 -1047 0
-981 -1053 0
-981 -1059 0
-981 -1065 0
-981 -1071 0
-981 -1077 0
-981 -1083 0
-981 -1089 0
-981 -1095 0
-981 -1101 0
-981 -1107 0
-981 -1113 0
-981 -1119 0
-981 -1125 0
-981 -1131 0
-981 -1137 0
-981 -1143 0
-981 -1149 0
-981 -1155 0
-981 -1161 0
-981 -1167 0
-981 -1173 0
-981 -1179 0
-981 -1185 0
-981 -1191 0
-981 -1197 0
-981 -1203 0
-981 -1209 0
-981 -1215 0
-981 -1221 0
-981 -1227 0
-981 -1233 0
-981 -1239 0
-981 -1245 0
-981 -1251 0
-981 -1257 0
-981 -1263 0
-987 -993 0
-987 -999 0
-987 -1005 0
-987 -1011 0
-987 -1017 0
-987 -1023 0
-987 -1029 0
-987 -1035 0
-987 -1041 0
-987 -1047 0
-987 -1053 0
-987 -1059 0
-987 -1065 0
-987 -1071 0
-987 -1077 0
-987 -1083 0
-987 -1089 0
-987 -1095 0
-987 -1101 0
-987 -1107 0
-987 -1113 0
-987 -1119 0
-987 -1125 0
-987 -1131 0
-987 -1137 0
-987 -1143 0
-987 -1149 0
-987 -1155 0
-987 -1161 0
-987 -1167 0
-987 -1173 0
-987 -1179 0
-987 -1185 0
-987 -1191 0
-987 -1197 0
-987 -1203 0
-987 -1209 0
-987 -1215 0
-987 -1221 0
-987 -1227 0
-987 -1233 0
-987 -1239 0
-987 -1245 0
-987 -1251 0
-987 -1257 0
-987 -1263 0
-993 -999 0
-993 -1005 0
-993 -1011 0
-993 -1017 0
-993 -1023 0
-993 -1029 0
-993 -1035 0
-993 -1041 0
-993 -1047 0
-993 -1053 0
-993 -1059 0
-993 -1065 0
-993 -1071 0
-993 -1077 0
-993 -1083 0
-993 -1089 0
-993 -1095 0
-993 -1101 0
-993 -1107 0
-993 -1113 0
-993 -1119 0
-993 -1125 0
-993 -1131 0
-993 -1137 0
-993 -1143 0
-993 -1149 0
-993 -1155 0
-993 -1161 0
-993 -1167 0
-993 -1173 0
-993 -1179 0
-993 -1185 0
-993 -1191 0
-993 -1197 0
-993 -1203 0
-993 -1209 0
-993 -1215 0
-993 -1221 0
-993 -1227 0
-993 -1233 0
-993 -1239 0
-993 -1245 0
-993 -1251 0
-993 -1257 0
-993 -1263 0
-999 -1005 0
-999 -1011 0
-999 -1017 0
-999 -1023 0
-999 -1029 0
-999 -1035 0
-999 -1041 0
-999 -1047 0
-999 -1053 0
-999 -1059 0
-999 -1065 0
-999 -1071 0
-999 -1077 0
-999 -1083 0
-999 -1089 0
-999 -1095 0
-999 -1101 0
-999 -1107 0
-999 -1113 0
-999 -1119 0
-999 -1125 0
-999 -1131 0
-999 -1137 0
-999 -1143 0
-999 -1149 0
-999 -1155 0
-999 -1161 0
-999 -1167 0
-999 -1173 0
-999 -1179 0
-999 -1185 0
-999 -1191 0
-999 -1197 0
-999 -1203 0
-999 -1209 0
-999 -1215 0
-999 -1221 0
-999 -1227 0
-999 -1233 0
-999 -1239 0
-999 -1245 0
-999 -1251 0
-999 -1257 0
-999 -1263 0
-1005 -1011 0
-1005 -1017 0
-1005 -1023 0
-1005 -1029 0
-1005 -1035 0
-1005 -1041 0
-1005 -1047 0
-1005 -1053 0
-1005 -1059 0
-1005 -1065 0
-1005 -1071 0
-1005 -1077 0
-1005 -1083 0
-1005 -1089 0
-1005 -1095 0
-1005 -1101 0
-1005 -1107 0
-1005 -1113 0
-1005 -1119 0
-1005 -1125 0
-1005 -1131 0
-1005 -1137 0
-1005 -1143 0
-1005 -1149 0
-1005 -1155 0
-1005 -1161 0
-1005 -1167 0
-1005 -1173 0
-1005 -1179 0
-1005 -1185 0
-1005 -1191 0
-1005 -1197 0
-1005 -1203 0
-1005 -1209 0
-1005 -1215 0
-1005 -1221 0
-1005 -1227 0
-1005 -1233 0
-1005 -1239 0
-1005 -1245 0
-1005 -1251 0
-1005 -1257 0
-1005 -1263 0
-1011 -1017 0
-1011 -1023 0
-1011 -1029 0
-1011 -1035 0
-1011 -1041 0
-1011 -1047 0
-1011 -1053 0
-1011 -1059 0
-1011 -1065 0
-1011 -1071 0
-1011 -1077 0
-1011 -1083 0
-1011 -1089 0
-1011 -1095 0
-1011 -1101 0
-1011 -1107 0
-1011 -1113 0
-1011 -1119 0
-1011 -1125 0
-1011 -1131 0
-1011 -1137 0
-1011 -1143 0
-1011 -1149 0
-1011 -1155 0
-1011 -1161 0
-1011 -1167 0
-1011 -1173 0
-1011 -1179 0
-1011 -1185 0
-1011 -1191 0
-1011 -1197 0
-1011 -1203 0
-1011 -1209 0
-1011 -1215 0
-1011 -1221 0
-1011 -1227 0
-1011 -1233 0
-1011 -1239 0
-1011 -1245 0
-1011 -1251 0
-1011 -1257 0
-1011 -1263 0
-1017 -1023 0
-1017 -1029 0
-1017 -1035 0
-1017 -1041 0
-1017 -1047 0
-1017 -1053 0
-1017 -1059 0
-1017 -1065 0
-1017 -1071 0
-1017 -1077 0
-1017 -1083 0
-1017 -1089 0
-1017 -1095 0
-1017 -1101 0
-1017 -1107 0
-1017 -1113 0
-1017 -1119 0
-1017 -1125 0
-1017 -1131 0
-1017 -1137 0
-1017 -1143 0
-1017 -1149 0
-1017 -1155 0
-1017 -1161 0
-1017 -1167 0
-1017 -1173 0
-1017 -1179 0
-1017 -1185 0
-1017 -1191 0
-1017 -1197 0
-1017 -1203 0
-1017 -1209 0
-1017 -1215 0
-1017 -1221 0
-1017 -1227 0
-1017 -1233 0
-1017 -1239 0
-1017 -1245 0
-1017 -1251 0
-1017 -1257 0
-1017 -1263 0
-1023 -1029 0
-1023 -1035 0
-1023 -1041 0
-1023 -1047 0
-1023 -1053 0
-1023 -1059 0
-1023 -1065 0
-1023 -1071 0
-1023 -1077 0
-1023 -1083 0
-1023 -1089 0
-1023 -1095 0
-1023 -1101 0
-1023 -1107 0
-1023 -1113 0
-1023 -1119 0
-1023 -1125 0
-1023 -1131 0
-1023 -1137 0
-1023 -1143 0
-1023 -1149 0
-1023 -1155 0
-1023 -1161 0
-1023 -1167 0
-1023 -1173 0
-1023 -1179 0
-1023 -1185 0
-1023 -1191 0
-1023 -1197 0
-1023 -1203 0
-1023 -1209 0
-1023 -1215 0
-1023 -1221 0
-1023 -1227 0
-1023 -1233 0
-1023 -1239 0
-1023 -1245 0
-1023 -1251 0
-1023 -1257 0
-1023 -1263 0
-1029 -1035 0
-1029 -1041 0
-1029 -1047 0
-1029 -1053 0
-1029 -1059 0
-1029 -1065 0
-1029 -1071 0
-1029 -1077 0
-1029 -1083 0
-1029 -1089 0
-1029 -1095 0
-1029 -1101 0
-1029 -1107 0
-1029 -1113 0
-1029 -1119 0
-1029 -1125 0
-1029 -1131 0
-1029 -1137 0
-1029 -1143 0
-1029 -1149 0
-1029 -1155 0
-1029 -1161 0
-1029 -1167 0
-1029 -1173 0
-1029 -1179 0
-1029 -1185 0
-1029 -1191 0
-1029 -1197 0
-1029 -1203 0
-1029 -1209 0
-1029 -1215 0
-1029 -1221 0
-1029 -1227 0
-1029 -1233 0
-1029 -1239 0
-1029 -1245 0
-1029 -1251 0
-1029 -1257 0
-1029 -1263 0
-1035 -1041 0
-1035 -1047 0
-1035 -1053 0
-1035 -1059 0
-1035 -1065 0
-1035 -1071 0
-1035 -1077 0
-1035 -1083 0
-1035 -1089 0
-1035 -1095 0
-1035 -1101 0
-1035 -1107 0
-1035 -1113 0
-1035 -1119 0
-1035 -1125 0
-1035 -1131 0
-1035 -1137 0
-1035 -1143 0
-1035 -1149 0
-1035 -1155 0
-1035 -1161 0
-1035 -1167 0
-1035 -1173 0
-1035 -1179 0
-1035 -1185 0
-1035 -1191 0
-1035 -1197 0
-1035 -1203 0
-1035 -1209 0
-1035 -1215 0
-1035 -1221 0
-1035 -1227 0
-1035 -1233 0
-1035 -1239 0
-1035 -1245 0
-1035 -1251 0
-1035 -1257 0
-1035 -1263 0
-1041 -1047 0
-1041 -1053 0
-1041 -1059 0
-1041 -1065 0
-1041 -1071 0
-1041 -1077 0
-1041 -1083 0
-1041 -1089 0
-1041 -1095 0
-1041 -1101 0
-1041 -1107 0
-1041 -1113 0
-1041 -1119 0
-1041 -1125 0
-1041 -1131 0
-1041 -1137 0
-1041 -1143 0
-1041 -1149 0
-1041 -1155 0
-1041 -1161 0
-1041 -1167 0
-1041 -1173 0
-1041 -1179 0
-1041 -1185 0
-1041 -1191 0
-1041 -1197 0
-1041 -1203 0
-1041 -1209 0
-1041 -1215 0
-1041 -1221 0
-1041 -1227 0
-1041 -1233 0
-1041 -1239 0
-1041 -1245 0
-1041 -1251 0
-1041 -1257 0
-1041 -1263 0
-1047 -1053 0
-1047 -1059 0
-1047 -1065 0
-1047 -1071 0
-1047 -1077 0
-1047 -1083 0
-1047 -1089 0
-1047 -1095 0
-1047 -1101 0
-1047 -1107 0
-1047 -1113 0
-1047 -1119 0
-1047 -1125 0
-1047 -1131 0
-1047 -1137 0
-1047 -1143 0
-1047 -1149 0
-1047 -1155 0
-1047 -1161 0
-1047 -1167 0
-1047 -1173 0
-1047 -1179 0
-1047 -1185 0
-1047 -1191 0
-1047 -1197 0
-1047 -1203 0
-1047 -1209 0
-1047 -1215 0
-1047 -1221 0
-1047 -1227 0
-1047 -1233 0
-1047 -1239 0
-1047 -1245 0
-1047 -1251 0
-1047 -1257 0
-1047 -1263 0
-1053 -1059 0
-1053 -1065 0
-1053 -1071 0
-1053 -1077 0
-1053 -1083 0
-1053 -1089 0
-1053 -1095 0
-1053 -1101 0
-1053 -1107 0
-1053 -1113 0
-1053 -1119 0
-1053 -1125 0
-1053 -1131 0
-1053 -1137 0
-1053 -1143 0
-1053 -1149 0
-1053 -1155 0
-1053 -1161 0
-1053 -1167 0
-1053 -1173 0
-1053 -1179 0
-1053 -1185 0
-1053 -1191 0
-1053 -1197 0
-1053 -1203 0
-1053 -1209 0
-1053 -1215 0
-1053 -1221 0
-1053 -1227 0
-1053 -1233 0
-1053 -1239 0
-1053 -1245 0
-1053 -1251 0
-1053 -1257 0
-1053 -1263 0
-1059 -1065 0
-1059 -1071 0
-1059 -1077 0
-1059 -1083 0
-1059 -1089 0
-1059 -1095 0
-1059 -1101 0
-1059 -1107 0
-1059 -1113 0
-1059 -1119 0
-1059 -1125 0
-1059 -1131 0
-1059 -1137 0
-1059 -1143 0
-1059 -1149 0
-1059 -1155 0
-1059 -1161 0
-1059 -1167 0
-1059 -1173 0
-1059 -1179 0
-1059 -1185 0
-1059 -1191 0
-1059 -1197 0
-1059 -1203 0
-1059 -1209 0
-1059 -1215 0
-1059 -1221 0
-1059 -1227 0
-1059 -1233 0
-1059 -1239 0
-1059 -1245 0
-1059 -1251 0
-1059 -1257 0
-1059 -1263 0
-1065 -1071 0
-1065 -1077 0
-1065 -1083 0
-1065 -1089 0
-1065 -1095 0
-1065 -1101 0
-1065 -1107 0
-1065 -1113 0
-1065 -1119 0
-1065 -1125 0
-1065 -1131 0
-1065 -1137 0
-1065 -1143 0
-1065 -1149 0
-1065 -1155 0
-1065 -1161 0
-1065 -1167 0
-1065 -1173 0
-1065 -1179 0
-1065 -1185 0
-1065 -1191 0
-1065 -1197 0
-1065 -1203 0
-1065 -1209 0
-1065 -1215 0
-1065 -1221 0
-1065 -1227 0
-1065 -1233 0
-1065 -1239 0
-1065 -1245 0
-1065 -1251 0
-1065 -1257 0
-1065 -1263 0
-1071 -1077 0
-1071 -1083 0
-1071 -1089 0
-1071 -1095 0
-1071 -1101 0
-1071 -1107 0
-1071 -1113 0
-1071 -1119 0
-1071 -1125 0
-1071 -1131 0
-1071 -1137 0
-1071 -1143 0
-1071 -1149 0
-1071 -1155 0
-1071 -1161 0
-1071 -1167 0
-1071 -1173 0
-1071 -1179 0
-1071 -1185 0
-1071 -1191 0
-1071 -1197 0
-1071 -1203 0
-1071 -1209 0
-1071 -1215 0
-1071 -1221 0
-1071 -1227 0
-1071 -1233 0
-1071 -1239 0
-1071 -1245 0
-1071 -1251 0
-1071 -1257 0
-1071 -1263 0
-1077 -1083 0
-1077 -1089 0
-1077 -1095 0
-1077 -1101 0
-1077 -1107 0
-1077 -1113 0
-1077 -1119 0
-1077 -1125 0
-1077 -1131 0
-1077 -1137 0
-1077 -1143 0
-1077 -1149 0
-1077 -1155 0
-1077 -1161 0
-1077 -1167 0
-1077 -1173 0
-1077 -1179 0
-1077 -1185 0
-1077 -1191 0
-1077 -1197 0
-1077 -1203 0
-1077 -1209 0
-1077 -1215 0
-1077 -1221 0
-1077 -1227 0
-1077 -1233 0
-1077 -1239 0
-1077 -1245 0
-1077 -1251 0
-1077 -1257 0
-1077 -1263 0
-1083 -1089 0
-1083 -1095 0
-1083 -1101 0
-1083 -1107 0
-1083 -1113 0
-1083 -1119 0
-1083 -1125 0
-1083 -1131 0
-1083 -1137 0
-1083 -1143 0
-1083 -1149 0
-1083 -1155 0
-1083 -1161 0
-1083 -1167 0
-1083 -1173 0
-1083 -1179 0
-1083 -1185 0
-1083 -1191 0
-1083 -1197 0
-1083 -1203 0
-1083 -1209 0
-1083 -1215 0
-1083 -1221 0
-1083 -1227 0
-1083 -1233 0
-1083 -1239 0
-1083 -1245 0
-1083 -1251 0
-1083 -1257 0
-1083 -1263 0
-1089 -1095 0
-1089 -1101 0
-1089 -1107 0
-1089 -1113 0
-1089 -1119 0
-1089 -1125 0
-1089 -1131 0
-1089 -1137 0
-1089 -1143 0
-1089 -1149 0
-1089 -1155 0
-1089 -1161 0
-1089 -1167 0
-1089 -1173 0
-1089 -1179 0
-1089 -1185 0
-1089 -1191 0
-1089 -1197 0
-1089 -1203 0
-1089 -1209 0
-1089 -1215 0
-1089 -1221 0
-1089 -1227 0
-1089 -1233 0
-1089 -1239 0
-1089 -1245 0
-1089 -1251 0
-1089 -1257 0
-1089 -1263 0
-1095 -1101 0
-1095 -1107 0
-1095 -1113 0
-1095 -1119 0
-1095 -1125 0
-1095 -1131 0
-1095 -1137 0
-1095 -1143 0
-1095 -1149 0
-1095 -1155 0
-1095 -1161 0
-1095 -1167 0
-1095 -1173 0
-1095 -1179 0
-1095 -1185 0
-1095 -1191 0
-1095 -1197 0
-1095 -1203 0
-1095 -1209 0
-1095 -1215 0
-1095 -1221 0
-1095 -1227 0
-1095 -1233 0
-1095 -1239 0
-1095 -1245 0
-1095 -1251 0
-1095 -1257 0
-1095 -1263 0
-1101 -1107 0
-1101 -1113 0
-1101 -1119 0
-1101 -1125 0
-1101 -1131 0
-1101 -1137 0
-1101 -1143 0
-1101 -1149 0
-1101 -1155 0
-1101 -1161 0
-1101 -1167 0
-1101 -1173 0
-1101 -1179 0
-1101 -1185 0
-1101 -1191 0
-1101 -1197 0
-1101 -1203 0
-1101 -1209 0
-1101 -1215 0
-1101 -1221 0
-1101 -1227 0
-1101 -1233 0
-1101 -1239 0
-1101 -1245 0
-1101 -1251 0
-1101 -1257 0
-1101 -1263 0
-1107 -1113 0
-1107 -1119 0
-1107 -1125 0
-1107 -1131 0
-1107 -1137 0
-1107 -1143 0
-1107 -1149 0
-1107 -1155 0
-1107 -1161 0
-1107 -1167 0
-1107 -1173 0
-1107 -1179 0
-1107 -1185 0
-1107 -1191 0
-1107 -1197 0
-1107 -1203 0
-1107 -1209 0
-1107 -1215 0
-1107 -1221 0
-1107 -1227 0
-1107 -1233 0
-1107 -1239 0
-1107 -1245 0
-1107 -1251 0
-1107 -1257 0
-1107 -1263 0
-1113 -1119 0
-1113 -1125 0
-1113 -1131 0
-1113 -1137 0
-1113 -1143 0
-1113 -1149 0
-1113 -1155 0
-1113 -1161 0
-1113 -1167 0
-1113 -1173 0
-1113 -1179 0
-1113 -1185 0
-1113 -1191 0
-1113 -1197 0
-1113 -1203 0
-1113 -1209 0
-1113 -1215 0
-1113 -1221 0
-1113 -1227 0
-1113 -1233 0
-1113 -1239 0
-1113 -1245 0
-1113 -1251 0
-1113 -1257 0
-1113 -1263 0
-1119 -1125 0
-1119 -1131 0
-1119 -1137 0
-1119 -1143 0
-1119 -1149 0
-1119 -1155 0
-1119 -1161 0
-1119 -1167 0
-1119 -1173 0
-1119 -1179 0
-1119 -1185 0
-1119 -1191 0
-1119 -1197 0
-1119 -1203 0
-1119 -1209 0
-1119 -1215 0
-1119 -1221 0
-1119 -1227 0
-1119 -1233 0
-1119 -1239 0
-1119 -1245 0
-1119 -1251 0
-1119 -1257 0
-1119 -1263 0
-1125 -1131 0
-1125 -1137 0
-1125 -1143 0
-1125 -1149 0
-1125 -1155 0
-1125 -1161 0
-1125 -1167 0
-1125 -1173 0
-1125 -1179 0
-1125 -1185 0
-1125 -1191 0
-1125 -1197 0
-1125 -1203 0
-1125 -1209 0
-1125 -1215 0
-1125 -1221 0
-1125 -1227 0
-1125 -1233 0
-1125 -1239 0
-1125 -1245 0
-1125 -1251 0
-1125 -1257 0
-1125 -1263 0
-1131 -1137 0
-1131 -1143 0
-1131 -1149 0
-1131 -1155 0
-1131 -1161 0
-1131 -1167 0
-1131 -1173 0
-1131 -1179 0
-1131 -1185 0
-1131 -1191 0
-1131 -1197 0
-1131 -1203 0
-1131 -1209 0
-1131 -1215 0
-1131 -1221 0
-1131 -1227 0
-1131 -1233 0
-1131 -1239 0
-1131 -1245 0
-1131 -1251 0
-1131 -1257 0
-1131 -1263 0
-1137 -1143 0
-1137 -1149 0
-1137 -1155 0
-1137 -1161 0
-1137 -1167 0
-1137 -1173 0
-1137 -1179 0
-1137 -1185 0
-1137 -1191 0
-1137 -1197 0
-1137 -1203 0
-1137 -1209 0
-1137 -1215 0
-1137 -1221 0
-1137 -1227 0
-1137 -1233 0
-1137 -1239 0
-1137 -1245 0
-1137 -1251 0
-1137 -1257 0
-1137 -1263 0
-1143 -1149 0
-1143 -1155 0
-1143 -1161 0
-1143 -1167 0
-1143 -1173 0
-1143 -1179 0
-1143 -1185 0
-1143 -1191 0
-1143 -1197 0
-1143 -1203 0
-1143 -1209 0
-1143 -1215 0
-1143 -1221 0
-1143 -1227 0
-1143 -1233 0
-1143 -1239 0
-1143 -1245 0
-1143 -1251 0
-1143 -1257 0
-1143 -1263 0
-1149 -1155 0
-1149 -1161 0
-1149 -1167 0
-1149 -1173 0
-1149 -1179 0
-1149 -1185 0
-1149 -1191 0
-1149 -1197 0
-1149 -1203 0
-1149 -1209 0
-1149 -1215 0
-1149 -1221 0
-1149 -1227 0
-1149 -1233 0
-1149 -1239 0
-1149 -1245 0
-1149 -1251 0
-1149 -1257 0
-1149 -1263 0
-1155 -1161 0
-1155 -1167 0
-1155 -1173 0
-1155 -1179 0
-1155 -1185 0
-1155 -1191 0
-1155 -1197 0
-1155 -1203 0
-1155 -1209 0
-1155 -1215 0
-1155 -1221 0
-1155 -1227 0
-1155 -1233 0
-1155 -1239 0
-1155 -1245 0
-1155 -1251 0
-1155 -1257 0
-1155 -1263 0
-1161 -1167 0
-1161 -1173 0
-1161 -1179 0
-1161 -1185 0
-1161 -1191 0
-1161 -1197 0
-1161 -1203 0
-1161 -1209 0
-1161 -1215 0
-1161 -1221 0
-1161 -1227 0
-1161 -1233 0
-1161 -1239 0
-1161 -1245 0
-1161 -1251 0
-1161 -1257 0
-1161 -1263 0
-1167 -1173 0
-1167 -1179 0
-1167 -1185 0
-1167 -1191 0
-1167 -1197 0
-1167 -1203 0
-1167 -1209 0
-1167 -1215 0
-1167 -1221 0
-1167 -1227 0
-1167 -1233 0
-1167 -1239 0
-1167 -1245 0
-1167 -1251 0
-1167 -1257 0
-1167 -1263 0
-1173 -1179 0
-1173 -1185 0
-1173 -1191 0
-1173 -1197 0
-1173 -1203 0
-1173 -1209 0
-1173 -1215 0
-1173 -1221 0
-1173 -1227 0
-1173 -1233 0
-1173 -1239 0
-1173 -1245 0
-1173 -1251 0
-1173 -1257 0
-1173 -1263 0
-1179 -1185 0
-1179 -1191 0
-1179 -1197 0
-1179 -1203 0
-1179 -1209 0
-1179 -1215 0
-1179 -1221 0
-1179 -1227 0
-1179 -1233 0
-1179 -1239 0
-1179 -1245 0
-1179 -1251 0
-1179 -1257 0
-1179 -1263 0
-1185 -1191 0
-1185 -1197 0
-1185 -1203 0
-1185 -1209 0
-1185 -1215 0
-1185 -1221 0
-1185 -1227 0
-1185 -1233 0
-1185 -1239 0
-1185 -1245 0
-1185 -1251 0
-1185 -1257 0
-1185 -1263 0
-1191 -1197 0
-1191 -1203 0
-1191 -1209 0
-1191 -1215 0
-1191 -1221 0
-1191 -1227 0
-1191 -1233 0
-1191 -1239 0
-1191 -1245 0
-1191 -1251 0
-1191 -1257 0
-1191 -1263 0
-1197 -1203 0
-1197 -1209 0
-1197 -1215 0
-1197 -1221 0
-1197 -1227 0
-1197 -1233 0
-1197 -1239 0
-1197 -1245 0
-1197 -1251 0
-1197 -1257 0
-1197 -1263 0
-1203 -1209 0
-1203 -1215 0
-1203 -1221 0
-1203 -1227 0
-1203 -1233 0
-1203 -1239 0
-1203 -1245 0
-1203 -1251 0
-1203 -1257 0
-1203 -1263 0
-1209 -1215 0
-1209 -1221 0
-1209 -1227 0
-1209 -1233 0
-1209 -1239 0
-1209 -1245 0
-1209 -1251 0
-1209 -1257 0
-1209 -1263 0
-1215 -1221 0
-1215 -1227 0
-1215 -1233 0
-1215 -1239 0
-1215 -1245 0
-1215 -1251 0
-1215 -1257 0
-1215 -1263 0
-1221 -1227 0
-1221 -1233 0
-1221 -1239 0
-1221 -1245 0
-1221 -1251 0
-1221 -1257 0
-1221 -1263 0
-1227 -1233 0
-1227 -1239 0
-1227 -1245 0
-1227 -1251 0
-1227 -1257 0
-1227 -1263 0
-1233 -1239 0
-1233 -1245 0
-1233 -1251 0
-1233 -1257 0
-1233 -1263 0
-1239 -1245 0
-1239 -1251 0
-1239 -1257 0
-1239 -1263 0
-1245 -1251 0
-1245 -1257 0
-1245 -1263 0
-1251 -1257 0
-1251 -1263 0
-1257 -1263 0
-765 233 0
-765 -184 0
-765 -170 3 0
-765 -170 157 0
-765 -170 -51 0
-765 -170 -58 0
-765 -170 -65 0
-765 -170 -72 0
-765 -170 -79 0
-765 -170 -44 -177 0
-765 -170 -86 -198 0
-765 -170 -121 -219 0
-765 -170 387 513 639 0
-765 -177 3 0
-765 -177 164 0
-765 -177 -51 0
-765 -177 -58 0
-765 -177 -65 0
-765 -177 -72 0
-765 -177 -79 0
-765 -177 -44 -184 0
-765 -177 -86 -205 0
-765 -177 -121 -226 0
-765 -177 394 520 646 0
-765 -2 -170 -156 0
-765 -2 -177 -163 0
-771 233 0
-771 -184 0
-771 -170 10 0
-771 -170 157 0
-771 -170 -44 0
-771 -170 -58 0
-771 -170 -65 0
-771 -170 -72 0
-771 -170 -79 0
-771 -170 -51 -177 0
-771 -170 -86 -198 0
-771 -170 -93 -198 0
-771 -170 -121 -219 0
-771 -170 -128 -219 0
-771 -170 408 534 660 0
-771 -177 10 0
-771 -177 164 0
-771 -177 -44 0
-771 -177 -58 0
-771 -177 -65 0
-771 -177 -72 0
-771 -177 -79 0
-771 -177 -51 -184 0
-771 -177 -86 -205 0
-771 -177 -93 -205 0
-771 -177 -121 -226 0
-771 -177 -128 -226 0
-771 -177 415 541 667 0
-771 -9 -170 -156 0
-771 -9 -177 -163 0
-777 233 0
-777 -184 0
-777 -170 17 0
-777 -170 157 0
-777 -170 -44 0
-777 -170 -51 0
-777 -170 -65 0
-777 -170 -72 0
-777 -170 -79 0
-777 -170 -58 -177 0
-777 -170 -93 -198 0
-777 -170 -100 -198 0
-777 -170 -121 -219 0
-777 -170 -128 -219 0
-777 -170 -135 -219 0
-777 -170 429 555 681 0
-777 -177 17 0
-777 -177 164 0
-777 -177 -44 0
-777 -177 -51 0
-777 -177 -65 0
-777 -177 -72 0
-777 -177 -79 0
-777 -177 -58 -184 0
-777 -177 -93 -205 0
-777 -177 -100 -205 0
-777 -177 -121 -226 0
-777 -177 -128 -226 0
-777 -177 -135 -226 0
-777 -177 436 562 688 0
-777 -16 -170 -156 0
-777 -16 -177 -163 0
-783 233 0
-783 -184 0
-783 -170 24 0
-783 -170 157 0
-783 -170 -44 0
-783 -170 -51 0
-783 -170 -58 0
-783 -170 -72 0
-783 -170 -79 0
-783 -170 -65 -177 0
-783 -170 -100 -198 0
-783 -170 -107 -198 0
-783 -170 -128 -219 0
-783 -170 -135 -219 0
-783 -170 -142 -219 0
-783 -170 450 576 702 0
-783 -177 24 0
-783 -177 164 0
-783 -177 -44 0
-783 -177 -51 0
-783 -177 -58 0
-783 -177 -72 0
-783 -177 -79 0
-783 -177 -65 -184 0
-783 -177 -100 -205 0
-783 -177 -107 -205 0
-783 -177 -128 -226 0
-783 -177 -135 -226 0
-783 -177 -142 -226 0
-783 -177 457 583 709 0
-783 -23 -170 -156 0
-783 -23 -177 -163 0
-789 233 0
-789 -184 0
-789 -170 31 0
-789 -170 157 0
-789 -170 -44 0
-789 -170 -51 0
-789 -170 -58 0
-789 -170 -65 0
-789 -170 -79 0
-789 -170 -72 -177 0
-789 -170 -107 -198 0
-789 -170 -114 -198 0
-789 -170 -135 -219 0
-789 -170 -142 -219 0
-789 -170 471 597 723 0
-789 -177 31 0
-789 -177 164 0
-789 -177 -44 0
-789 -177 -51 0
-789 -177 -58 0
-789 -177 -65 0
-789 -177 -79 0
-789 -177 -72 -184 0
-789 -177 -107 -205 0
-789 -177 -114 -205 0
-789 -177 -135 -226 0
-789 -177 -142 -226 0
-789 -177 478 604 730 0
-789 -30 -170 -156 0
-789 -30 -177 -163 0
-795 233 0
-795 -184 0
-795 -170 38 0
-795 -170 157 0
-795 -170 -44 0
-795 -170 -51 0
-795 -170 -58 0
-795 -170 -65 0
-795 -170 -72 0
-795 -170 -79 -177 0
-795 -170 -114 -198 0
-795 -170 -142 -219 0
-795 -170 492 618 744 0
-795 -177 38 0
-795 -177 164 0
-795 -177 -44 0
-795 -177 -51 0
-795 -177 -58 0
-795 -177 -65 0
-795 -177 -72 0
-795 -177 -79 -184 0
-795 -177 -114 -205 0
-795 -177 -142 -226 0
-795 -177 499 625 751 0
-795 -37 -170 -156 0
-795 -37 -177 -163 0
-801 233 0
-801 -205 0
-801 -191 3 0
-801 -191 157 0
-801 -191 -93 0
-801 -191 -100 0
-801 -191 -107 0
-801 -191 -114 0
-801 -191 -44 -177 0
-801 -191 -86 -198 0
-801 -191 -121 -219 0
-801 -191 387 513 639 0
-801 -198 3 0
-801 -198 164 0
-801 -198 -93 0
-801 -198 -100 0
-801 -198 -107 0
-801 -198 -114 0
-801 -198 -44 -184 0
-801 -198 -86 -205 0
-801 -198 -121 -226 0
-801 -198 394 520 646 0
-801 -2 -191 -156 0
-801 -2 -198 -163 0
-807 233 0
-807 -205 0
-807 -191 10 0
-807 -191 157 0
-807 -191 -100 0
-807 -191 -107 0
-807 -191 -114 0
-807 -191 -51 -177 0
-807 -191 -86 -198 0
-807 -191 -93 -198 0
-807 -191 -121 -219 0
-807 -191 -128 -219 0
-807 -191 408 534 660 0
-807 -198 10 0
-807 -198 164 0
-807 -198 -100 0
-807 -198 -107 0
-807 -198 -114 0
-807 -198 -51 -184 0
-807 -198 -86 -205 0
-807 -198 -93 -205 0
-807 -198 -121 -226 0
-807 -198 -128 -226 0
-807 -198 415 541 667 0
-807 -9 -191 -156 0
-807 -9 -198 -163 0
-813 233 0
-813 -205 0
-813 -191 17 0
-813 -191 157 0
-813 -191 -86 0
-813 -191 -107 0
-813 -191 -114 0
-813 -191 -58 -177 0
-813 -191 -93 -198 0
-813 -191 -100 -198 0
-813 -191 -121 -219 0
-813 -191 -128 -219 0
-813 -191 -135 -219 0
-813 -191 429 555 681 0
-813 -198 17 0
-813 -198 164 0
-813 -198 -86 0
-813 -198 -107 0
-813 -198 -114 0
-813 -198 -58 -184 0
-813 -198 -93 -205 0
-813 -198 -100 -205 0
-813 -198 -121 -226 0
-813 -198 -128 -226 0
-813 -198 -135 -226 0
-813 -198 436 562 688 0
-813 -16 -191 -156 0
-813 -16 -198 -163 0
-819 233 0
-819 -205 0
-819 -191 24 0
-819 -191 157 0
-819 -191 -86 0
-819 -191 -93 0
-819 -191 -114 0
-819 -191 -65 -177 0
-819 -191 -100 -198 0
-819 -191 -107 -198 0
-819 -191 -128 -219 0
-819 -191 -135 -219 0
-819 -191 -142 -219 0
-819 -191 450 576 702 0
-819 -198 24 0
-819 -198 164 0
-819 -198 -86 0
-819 -198 -93 0
-819 -198 -114 0
-819 -198 -65 -184 0
-819 -198 -100 -205 0
-819 -198 -107 -205 0
-819 -198 -128 -226 0
-819 -198 -135 -226 0
-819 -198 -142 -226 0
-819 -198 457 583 709 0
-819 -23 -191 -156 0
-819 -23 -198 -163 0
-825 233 0
-825 -205 0
-825 -191 31 0
-825 -191 157 0
-825 -191 -86 0
-825 -191 -93 0
-825 -191 -100 0
-825 -191 -72 -177 0
-825 -191 -107 -198 0
-825 -191 -114 -198 0
-825 -191 -135 -219 0
-825 -191 -142 -219 0
-825 -191 471 597 723 0
-825 -198 31 0
-825 -198 164 0
-825 -198 -86 0
-825 -198 -93 0
-825 -198 -100 0
-825 -198 -72 -184 0
-825 -198 -107 -205 0
-825 -198 -114 -205 0
-825 -198 -135 -226 0
-825 -198 -142 -226 0
-825 -198 478 604 730 0
-825 -30 -191 -156 0
-825 -30 -198 -163 0
-831 233 0
-831 -205 0
-831 -191 38 0
-831 -191 157 0
-831 -191 -86 0
-831 -191 -93 0
-831 -191 -100 0
-831 -191 -107 0
-831 -191 -79 -177 0
-831 -191 -114 -198 0
-831 -191 -142 -219 0
-831 -191 492 618 744 0
-831 -198 38 0
-831 -198 164 0
-831 -198 -86 0
-831 -198 -93 0
-831 -198 -100 0
-831 -198 -107 0
-831 -198 -79 -184 0
-831 -198 -114 -205 0
-831 -198 -142 -226 0
-831 -198 499 625 751 0
-831 -37 -191 -156 0
-831 -37 -198 -163 0
-837 233 0
-837 -226 0
-837 -212 3 0
-837 -212 157 0
-837 -212 -128 0
-837 -212 -135 0
-837 -212 -142 0
-837 -212 -44 -177 0
-837 -212 -86 -198 0
-837 -212 -121 -219 0
-837 -212 387 513 639 0
-837 -219 3 0
-837 -219 164 0
-837 -219 -128 0
-837 -219 -135 0
-837 -219 -142 0
-837 -219 -44 -184 0
-837 -219 -86 -205 0
-837 -219 -121 -226 0
-837 -219 394 520 646 0
-837 -2 -212 -156 0
-837 -2 -219 -163 0
-843 233 0
-843 -226 0
-843 -212 10 0
-843 -212 157 0
-843 -212 -135 0
-843 -212 -142 0
-843 -212 -51 -177 0
-843 -212 -86 -198 0
-843 -212 -93 -198 0
-843 -212 -121 -219 0
-843 -212 -128 -219 0
-843 -212 408 534 660 0
-843 -219 10 0
-843 -219 164 0
-843 -219 -135 0
-843 -219 -142 0
-843 -219 -51 -184 0
-843 -219 -86 -205 0
-843 -219 -93 -205 0
-843 -219 -121 -226 0
-843 -219 -128 -226 0
-843 -219 415 541 667 0
-843 -9 -212 -156 0
-843 -9 -219 -163 0
-849 233 0
-849 -226 0
-849 -212 17 0
-849 -212 157 0
-849 -212 -142 0
-849 -212 -58 -177 0
-849 -212 -93 -198 0
-849 -212 -100 -198 0
-849 -212 -121 -219 0
-849 -212 -128 -219 0
-849 -212 -135 -219 0
-849 -212 429 555 681 0
-849 -219 17 0
-849 -219 164 0
-849 -219 -142 0
-849 -219 -58 -184 0
-849 -219 -93 -205 0
-849 -219 -100 -205 0
-849 -219 -121 -226 0
-849 -219 -128 -226 0
-849 -219 -135 -226 0
-849 -219 436 562 688 0
-849 -16 -212 -156 0
-849 -16 -219 -163 0
-855 233 0
-855 -226 0
-855 -212 24 0
-855 -212 157 0
-855 -212 -121 0
-855 -212 -65 -177 0
-855 -212 -100 -198 0
-855 -212 -107 -198 0
-855 -212 -128 -219 0
-855 -212 -135 -219 0
-855 -212 -142 -219 0
-855 -212 450 576 702 0
-855 -219 24 0
-855 -219 164 0
-855 -219 -121 0
-855 -219 -65 -184 0
-855 -219 -100 -205 0
-855 -219 -107 -205 0
-855 -219 -128 -226 0
-855 -219 -135 -226 0
-855 -219 -142 -226 0
-855 -219 457 583 709 0
-855 -23 -212 -156 0
-855 -23 -219 -163 0
-861 233 0
-861 -226 0
-861 -212 31 0
-861 -212 157 0
-861 -212 -121 0
-861 -212 -128 0
-861 -212 -72 -177 0
-861 -212 -107 -198 0
-861 -212 -114 -198 0
-861 -212 -135 -219 0
-861 -212 -142 -219 0
-861 -212 471 597 723 0
-861 -219 31 0
-861 -219 164 0
-861 -219 -121 0
-861 -219 -128 0
-861 -219 -72 -184 0
-861 -219 -107 -205 0
-861 -219 -114 -205 0
-861 -219 -135 -226 0
-861 -219 -142 -226 0
-861 -219 478 604 730 0
-861 -30 -212 -156 0
-861 -30 -219 -163 0
-867 233 0
-867 -226 0
-867 -212 38 0
-867 -212 157 0
-867 -212 -121 0
-867 -212 -128 0
-867 -212 -135 0
-867 -212 -79 -177 0
-867 -212 -114 -198 0
-867 -212 -142 -219 0
-867 -212 492 618 744 0
-867 -219 38 0
-867 -219 164 0
-867 -219 -121 0
-867 -219 -128 0
-867 -219 -135 0
-867 -219 -79 -184 0
-867 -219 -114 -205 0
-867 -219 -142 -226 0
-867 -219 499 625 751 0
-867 -37 -212 -156 0
-867 -37 -219 -163 0
-873 233 0
-873 3 0
-873 150 0
-873 -2 -149 0
-873 -44 -170 0
-873 -86 -191 0
-873 -121 -212 0
-879 233 0
-879 10 0
-879 150 0
-879 -9 -149 0
-879 -51 -170 0
-879 -86 -191 0
-879 -93 -191 0
-879 -121 -212 0
-879 -128 -212 0
-885 233 0
-885 17 0
-885 150 0
-885 -16 -149 0
-885 -58 -170 0
-885 -93 -191 0
-885 -100 -191 0
-885 -121 -212 0
-885 -128 -212 0
-885 -135 -212 0
-891 233 0
-891 24 0
-891 150 0
-891 -23 -149 0
-891 -65 -170 0
-891 -100 -191 0
-891 -107 -191 0
-891 -128 -212 0
-891 -135 -212 0
-891 -142 -212 0
-897 233 0
-897 31 0
-897 150 0
-897 -30 -149 0
-897 -72 -170 0
-897 -107 -191 0
-897 -114 -191 0
-897 -135 -212 0
-897 -142 -212 0
-903 233 0
-903 38 0
-903 150 0
-903 -37 -149 0
-903 -79 -170 0
-903 -114 -191 0
-903 -142 -212 0
-909 240 0
-909 -163 0
-909 -149 45 0
-909 -149 178 0
-909 -149 -9 0
-909 -149 -16 0
-909 -149 -23 0
-909 -149 -30 0
-909 -149 -37 0
-909 -149 -2 -156 0
-909 -149 -86 -198 0
-909 -149 -121 -219 0
-909 -149 261 513 639 0
-909 -156 45 0
-909 -156 185 0
-909 -156 -9 0
-909 -156 -16 0
-909 -156 -23 0
-909 -156 -30 0
-909 -156 -37 0
-909 -156 -2 -163 0
-909 -156 -86 -205 0
-909 -156 -121 -226 0
-909 -156 268 520 646 0
-909 -44 -149 -177 0
-909 -44 -156 -184 0
-915 240 0
-915 -163 0
-915 -149 52 0
-915 -149 178 0
-915 -149 -2 0
-915 -149 -16 0
-915 -149 -23 0
-915 -149 -30 0
-915 -149 -37 0
-915 -149 -9 -156 0
-915 -149 -86 -198 0
-915 -149 -93 -198 0
-915 -149 -121 -219 0
-915 -149 -128 -219 0
-915 -149 282 534 660 0
-915 -156 52 0
-915 -156 185 0
-915 -156 -2 0
-915 -156 -16 0
-915 -156 -23 0
-915 -156 -30 0
-915 -156 -37 0
-915 -156 -9 -163 0
-915 -156 -86 -205 0
-915 -156 -93 -205 0
-915 -156 -121 -226 0
-915 -156 -128 -226 0
-915 -156 289 541 667 0
-915 -51 -149 -177 0
-915 -51 -156 -184 0
-921 240 0
-921 -163 0
-921 -149 59 0
-921 -149 178 0
-921 -149 -2 0
-921 -149 -9 0
-921 -149 -23 0
-921 -149 -30 0
-921 -149 -37 0
-921 -149 -16 -156 0
-921 -149 -93 -198 0
-921 -149 -100 -198 0
-921 -149 -121 -219 0
-921 -149 -128 -219 0
-921 -149 -135 -219 0
-921 -149 303 555 681 0
-921 -156 59 0
-921 -156 185 0
-921 -156 -2 0
-921 -156 -9 0
-921 -156 -23 0
-921 -156 -30 0
-921 -156 -37 0
-921 -156 -16 -163 0
-921 -156 -93 -205 0
-921 -156 -100 -205 0
-921 -156 -121 -226 0
-921 -156 -128 -226 0
-921 -156 -135 -226 0
-921 -156 310 562 688 0
-921 -58 -149 -177 0
-921 -58 -156 -184 0
-927 240 0
-927 -163 0
-927 -149 66 0
-927 -149 178 0
-927 -149 -2 0
-927 -149 -9 0
-927 -149 -16 0
-927 -149 -30 0
-927 -149 -37 0
-927 -149 -23 -156 0
-927 -149 -100 -198 0
-927 -149 -107 -198 0
-927 -149 -128 -219 0
-927 -149 -135 -219 0
-927 -149 -142 -219 0
-927 -149 324 576 702 0
-927 -156 66 0
-927 -156 185 0
-927 -156 -2 0
-927 -156 -9 0
-927 -156 -16 0
-927 -156 -30 0
-927 -156 -37 0
-927 -156 -23 -163 0
-927 -156 -100 -205 0
-927 -156 -107 -205 0
-927 -156 -128 -226 0
-927 -156 -135 -226 0
-927 -156 -142 -226 0
-927 -156 331 583 709 0
-927 -65 -149 -177 0
-927 -65 -156 -184 0
-933 240 0
-933 -163 0
-933 -149 73 0
-933 -149 178 0
-933 -149 -2 0
-933 -149 -9 0
-933 -149 -16 0
-933 -149 -23 0
-933 -149 -37 0
-933 -149 -30 -156 0
-933 -149 -107 -198 0
-933 -149 -114 -198 0
-933 -149 -135 -219 0
-933 -149 -142 -219 0
-933 -149 345 597 723 0
-933 -156 73 0
-933 -156 185 0
-933 -156 -2 0
-933 -156 -9 0
-933 -156 -16 0
-933 -156 -23 0
-933 -156 -37 0
-933 -156 -30 -163 0
-933 -156 -107 -205 0
-933 -156 -114 -205 0
-933 -156 -135 -226 0
-933 -156 -142 -226 0
-933 -156 352 604 730 0
-933 -72 -149 -177 0
-933 -72 -156 -184 0
-939 240 0
-939 -163 0
-939 -149 80 0
-939 -149 178 0
-939 -149 -2 0
-939 -149 -9 0
-939 -149 -16 0
-939 -149 -23 0
-939 -149 -30 0
-939 -149 -37 -156 0
-939 -149 -114 -198 0
-939 -149 -142 -219 0
-939 -149 366 618 744 0
-939 -156 80 0
-939 -156 185 0
-939 -156 -2 0
-939 -156 -9 0
-939 -156 -16 0
-939 -156 -23 0
-939 -156 -30 0
-939 -156 -37 -163 0
-939 -156 -114 -205 0
-939 -156 -142 -226 0
-939 -156 373 625 751 0
-939 -79 -149 -177 0
-939 -79 -156 -184 0
-945 240 0
-945 -205 0
-945 -191 45 0
-945 -191 178 0
-945 -191 -93 0
-945 -191 -100 0
-945 -191 -107 0
-945 -191 -114 0
-945 -191 -2 -156 0
-945 -191 -86 -198 0
-945 -191 -121 -219 0
-945 -191 261 513 639 0
-945 -198 45 0
-945 -198 185 0
-945 -198 -93 0
-945 -198 -100 0
-945 -198 -107 0
-945 -198 -114 0
-945 -198 -2 -163 0
-945 -198 -86 -205 0
-945 -198 -121 -226 0
-945 -198 268 520 646 0
-945 -44 -191 -177 0
-945 -44 -198 -184 0
-951 240 0
-951 -205 0
-951 -191 52 0
-951 -191 178 0
-951 -191 -100 0
-951 -191 -107 0
-951 -191 -114 0
-951 -191 -9 -156 0
-951 -191 -86 -198 0
-951 -191 -93 -198 0
-951 -191 -121 -219 0
-951 -191 -128 -219 0
-951 -191 282 534 660 0
-951 -198 52 0
-951 -198 185 0
-951 -198 -100 0
-951 -198 -107 0
-951 -198 -114 0
-951 -198 -9 -163 0
-951 -198 -86 -205 0
-951 -198 -93 -205 0
-951 -198 -121 -226 0
-951 -198 -128 -226 0
-951 -198 289 541 667 0
-951 -51 -191 -177 0
-951 -51 -198 -184 0
-957 240 0
-957 -205 0
-957 -191 59 0
-957 -191 178 0
-957 -191 -86 0
-957 -191 -107 0
-957 -191 -114 0
-957 -191 -16 -156 0
-957 -191 -93 -198 0
-957 -191 -100 -198 0
-957 -191 -121 -219 0
-957 -191 -128 -219 0
-957 -191 -135 -219 0
-957 -191 303 555 681 0
-957 -198 59 0
-957 -198 185 0
-957 -198 -86 0
-957 -198 -107 0
-957 -198 -114 0
-957 -198 -16 -163 0
-957 -198 -93 -205 0
-957 -198 -100 -205 0
-957 -198 -121 -226 0
-957 -198 -128 -226 0
-957 -198 -135 -226 0
-957 -198 310 562 688 0
-957 -58 -191 -177 0
-957 -58 -198 -184 0
-963 240 0
-963 -205 0
-963 -191 66 0
-963 -191 178 0
-963 -191 -86 0
-963 -191 -93 0
-963 -191 -114 0
-963 -191 -23 -156 0
-963 -191 -100 -198 0
-963 -191 -107 -198 0
-963 -191 -128 -219 0
-963 -191 -135 -219 0
-963 -191 -142 -219 0
-963 -191 324 576 702 0
-963 -198 66 0
-963 -198 185 0
-963 -198 -86 0
-963 -198 -93 0
-963 -198 -114 0
-963 -198 -23 -163 0
-963 -198 -100 -205 0
-963 -198 -107 -205 0
-963 -198 -128 -226 0
-963 -198 -135 -226 0
-963 -198 -142 -226 0
-963 -198 331 583 709 0
-963 -65 -191 -177 0
-963 -65 -198 -184 0
-969 240 0
-969 -205 0
-969 -191 73 0
-969 -191 178 0
-969 -191 -86 0
-969 -191 -93 0
-969 -191 -100 0
-969 -191 -30 -156 0
-969 -191 -107 -198 0
-969 -191 -114 -198 0
-969 -191 -135 -219 0
-969 -191 -142 -219 0
-969 -191 345 597 723 0
-969 -198 73 0
-969 -198 185 0
-969 -198 -86 0
-969 -198 -93 0
-969 -198 -100 0
-969 -198 -30 -163 0
-969 -198 -107 -205 0
-969 -198 -114 -205 0
-969 -198 -135 -226 0
-969 -198 -142 -226 0
-969 -198 352 604 730 0
-969 -72 -191 -177 0
-969 -72 -198 -184 0
-975 240 0
-975 -205 0
-975 -191 80 0
-975 -191 178 0
-975 -191 -86 0
-975 -191 -93 0
-975 -191 -100 0
-975 -191 -107 0
-975 -191 -37 -156 0
-975 -191 -114 -198 0
-975 -191 -142 -219 0
-975 -191 366 618 744 0
-975 -198 80 0
-975 -198 185 0
-975 -198 -86 0
-975 -198 -93 0
-975 -198 -100 0
-975 -198 -107 0
-975 -198 -37 -163 0
-975 -198 -114 -205 0
-975 -198 -142 -226 0
-975 -198 373 625 751 0
-975 -79 -191 -177 0
-975 -79 -198 -184 0
-981 240 0
-981 -226 0
-981 -212 45 0
-981 -212 178 0
-981 -212 -128 0
-981 -212 -135 0
-981 -212 -142 0
-981 -212 -2 -156 0
-981 -212 -86 -198 0
-981 -212 -121 -219 0
-981 -212 261 513 639 0
-981 -219 45 0
-981 -219 185 0
-981 -219 -128 0
-981 -219 -135 0
-981 -219 -142 0
-981 -219 -2 -163 0
-981 -219 -86 -205 0
-981 -219 -121 -226 0
-981 -219 268 520 646 0
-981 -44 -212 -177 0
-981 -44 -219 -184 0
-987 240 0
-987 -226 0
-987 -212 52 0
-987 -212 178 0
-987 -212 -135 0
-987 -212 -142 0
-987 -212 -9 -156 0
-987 -212 -86 -198 0
-987 -212 -93 -198 0
-987 -212 -121 -219 0
-987 -212 -128 -219 0
-987 -212 282 534 660 0
-987 -219 52 0
-987 -219 185 0
-987 -219 -135 0
-987 -219 -142 0
-987 -219 -9 -163 0
-987 -219 -86 -205 0
-987 -219 -93 -205 0
-987 -219 -121 -226 0
-987 -219 -128 -226 0
-987 -219 289 541 667 0
-987 -51 -212 -177 0
-987 -51 -219 -184 0
-993 240 0
-993 -226 0
-993 -212 59 0
-993 -212 178 0
-993 -212 -142 0
-993 -212 -16 -156 0
-993 -212 -93 -198 0
-993 -212 -100 -198 0
-993 -212 -121 -219 0
-993 -212 -128 -219 0
-993 -212 -135 -219 0
-993 -212 303 555 681 0
-993 -219 59 0
-993 -219 185 0
-993 -219 -142 0
-993 -219 -16 -163 0
-993 -219 -93 -205 0
-993 -219 -100 -205 0
-993 -219 -121 -226 0
-993 -219 -128 -226 0
-993 -219 -135 -226 0
-993 -219 310 562 688 0
-993 -58 -212 -177 0
-993 -58 -219 -184 0
-999 240 0
-999 -226 0
-999 -212 66 0
-999 -212 178 0
-999 -212 -121 0
-999 -212 -23 -156 0
-999 -212 -100 -198 0
-999 -212 -107 -198 0
-999 -212 -128 -219 0
-999 -212 -135 -219 0
-999 -212 -142 -219 0
-999 -212 324 576 702 0
-999 -219 66 0
-999 -219 185 0
-999 -219 -121 0
-999 -219 -23 -163 0
-999 -219 -100 -205 0
-999 -219 -107 -205 0
-999 -219 -128 -226 0
-999 -219 -135 -226 0
-999 -219 -142 -226 0
-999 -219 331 583 709 0
-999 -65 -212 -177 0
-999 -65 -219 -184 0
-1005 240 0
-1005 -226 0
-1005 -212 73 0
-1005 -212 178 0
-1005 -212 -121 0
-1005 -212 -128 0
-1005 -212 -30 -156 0
-1005 -212 -107 -198 0
-1005 -212 -114 -198 0
-1005 -212 -135 -219 0
-1005 -212 -142 -219 0
-1005 -212 345 597 723 0
-1005 -219 73 0
-1005 -219 185 0
-1005 -219 -121 0
-1005 -219 -128 0
-1005 -219 -30 -163 0
-1005 -219 -107 -205 0
-1005 -219 -114 -205 0
-1005 -219 -135 -226 0
-1005 -219 -142 -226 0
-1005 -219 352 604 730 0
-1005 -72 -212 -177 0
-1005 -72 -219 -184 0
-1011 240 0
-1011 -226 0
-1011 -212 80 0
-1011 -212 178 0
-1011 -212 -121 0
-1011 -212 -128 0
-1011 -212 -135 0
-1011 -212 -37 -156 0
-1011 -212 -114 -198 0
-1011 -212 -142 -219 0
-1011 -212 366 618 744 0
-1011 -219 80 0
-1011 -219 185 0
-1011 -219 -121 0
-1011 -219 -128 0
-1011 -219 -135 0
-1011 -219 -37 -163 0
-1011 -219 -114 -205 0
-1011 -219 -142 -226 0
-1011 -219 373 625 751 0
-1011 -79 -212 -177 0
-1011 -79 -219 -184 0
-1017 240 0
-1017 45 0
-1017 171 0
-1017 -44 -170 0
-1017 -2 -149 0
-1017 -86 -191 0
-1017 -121 -212 0
-1023 240 0
-1023 52 0
-1023 171 0
-1023 -51 -170 0
-1023 -9 -149 0
-1023 -86 -191 0
-1023 -93 -191 0
-1023 -121 -212 0
-1023 -128 -212 0
-1029 240 0
-1029 59 0
-1029 171 0
-1029 -58 -170 0
-1029 -16 -149 0
-1029 -93 -191 0
-1029 -100 -191 0
-1029 -121 -212 0
-1029 -128 -212 0
-1029 -135 -212 0
-1035 240 0
-1035 66 0
-1035 171 0
-1035 -65 -170 0
-1035 -23 -149 0
-1035 -100 -191 0
-1035 -107 -191 0
-1035 -128 -212 0
-1035 -135 -212 0
-1035 -142 -212 0
-1041 240 0
-1041 73 0
-1041 171 0
-1041 -72 -170 0
-1041 -30 -149 0
-1041 -107 -191 0
-1041 -114 -191 0
-1041 -135 -212 0
-1041 -142 -212 0
-1047 240 0
-1047 80 0
-1047 171 0
-1047 -79 -170 0
-1047 -37 -149 0
-1047 -114 -191 0
-1047 -142 -212 0
-1053 247 0
-1053 -163 0
-1053 -149 87 0
-1053 -149 199 0
-1053 -149 -16 0
-1053 -149 -23 0
-1053 -149 -30 0
-1053 -149 -37 0
-1053 -149 -2 -156 0
-1053 -149 -9 -156 0
-1053 -149 -44 -177 0
-1053 -149 -51 -177 0
-1053 -149 -121 -219 0
-1053 -149 -128 -219 0
-1053 -149 261 387 639 282 408 660 0
-1053 -156 87 0
-1053 -156 206 0
-1053 -156 -16 0
-1053 -156 -23 0
-1053 -156 -30 0
-1053 -156 -37 0
-1053 -156 -2 -163 0
-1053 -156 -9 -163 0
-1053 -156 -44 -184 0
-1053 -156 -51 -184 0
-1053 -156 -121 -226 0
-1053 -156 -128 -226 0
-1053 -156 268 394 646 289 415 667 0
-1053 -86 -149 -198 0
-1053 -86 -156 -205 0
-1059 247 0
-1059 -163 0
-1059 -149 94 0
-1059 -149 199 0
-1059 -149 -2 0
-1059 -149 -23 0
-1059 -149 -30 0
-1059 -149 -37 0
-1059 -149 -9 -156 0
-1059 -149 -16 -156 0
-1059 -149 -51 -177 0
-1059 -149 -58 -177 0
-1059 -149 -121 -219 0
-1059 -149 -128 -219 0
-1059 -149 -135 -219 0
-1059 -149 282 408 660 303 429 681 0
-1059 -156 94 0
-1059 -156 206 0
-1059 -156 -2 0
-1059 -156 -23 0
-1059 -156 -30 0
-1059 -156 -37 0
-1059 -156 -9 -163 0
-1059 -156 -16 -163 0
-1059 -156 -51 -184 0
-1059 -156 -58 -184 0
-1059 -156 -121 -226 0
-1059 -156 -128 -226 0
-1059 -156 -135 -226 0
-1059 -156 289 415 667 310 436 688 0
-1059 -93 -149 -198 0
-1059 -93 -156 -205 0
-1065 247 0
-1065 -163 0
-1065 -149 101 0
-1065 -149 199 0
-1065 -149 -2 0
-1065 -149 -9 0
-1065 -149 -30 0
-1065 -149 -37 0
-1065 -149 -16 -156 0
-1065 -149 -23 -156 0
-1065 -149 -58 -177 0
-1065 -149 -65 -177 0
-1065 -149 -121 -219 0
-1065 -149 -128 -219 0
-1065 -149 -135 -219 0
-1065 -149 -142 -219 0
-1065 -149 303 429 681 324 450 702 0
-1065 -156 101 0
-1065 -156 206 0
-1065 -156 -2 0
-1065 -156 -9 0
-1065 -156 -30 0
-1065 -156 -37 0
-1065 -156 -16 -163 0
-1065 -156 -23 -163 0
-1065 -156 -58 -184 0
-1065 -156 -65 -184 0
-1065 -156 -121 -226 0
-1065 -156 -128 -226 0
-1065 -156 -135 -226 0
-1065 -156 -142 -226 0
-1065 -156 310 436 688 331 457 709 0
-1065 -100 -149 -198 0
-1065 -100 -156 -205 0
-1071 247 0
-1071 -163 0
-1071 -149 108 0
-1071 -149 199 0
-1071 -149 -2 0
-1071 -149 -9 0
-1071 -149 -16 0
-1071 -149 -37 0
-1071 -149 -23 -156 0
-1071 -149 -30 -156 0
-1071 -149 -65 -177 0
-1071 -149 -72 -177 0
-1071 -149 -128 -219 0
-1071 -149 -135 -219 0
-1071 -149 -142 -219 0
-1071 -149 324 450 702 345 471 723 0
-1071 -156 108 0
-1071 -156 206 0
-1071 -156 -2 0
-1071 -156 -9 0
-1071 -156 -16 0
-1071 -156 -37 0
-1071 -156 -23 -163 0
-1071 -156 -30 -163 0
-1071 -156 -65 -184 0
-1071 -156 -72 -184 0
-1071 -156 -128 -226 0
-1071 -156 -135 -226 0
-1071 -156 -142 -226 0
-1071 -156 331 457 709 352 478 730 0
-1071 -107 -149 -198 0
-1071 -107 -156 -205 0
-1077 247 0
-1077 -163 0
-1077 -149 115 0
-1077 -149 199 0
-1077 -149 -2 0
-1077 -149 -9 0
-1077 -149 -16 0
-1077 -149 -23 0
-1077 -149 -30 -156 0
-1077 -149 -37 -156 0
-1077 -149 -72 -177 0
-1077 -149 -79 -177 0
-1077 -149 -135 -219 0
-1077 -149 -142 -219 0
-1077 -149 345 471 723 366 492 744 0
-1077 -156 115 0
-1077 -156 206 0
-1077 -156 -2 0
-1077 -156 -9 0
-1077 -156 -16 0
-1077 -156 -23 0
-1077 -156 -30 -163 0
-1077 -156 -37 -163 0
-1077 -156 -72 -184 0
-1077 -156 -79 -184 0
-1077 -156 -135 -226 0
-1077 -156 -142 -226 0
-1077 -156 352 478 730 373 499 751 0
-1077 -114 -149 -198 0
-1077 -114 -156 -205 0
-1083 247 0
-1083 -184 0
-1083 -170 87 0
-1083 -170 199 0
-1083 -170 -58 0
-1083 -170 -65 0
-1083 -170 -72 0
-1083 -170 -79 0
-1083 -170 -2 -156 0
-1083 -170 -9 -156 0
-1083 -170 -44 -177 0
-1083 -170 -51 -177 0
-1083 -170 -121 -219 0
-1083 -170 -128 -219 0
-1083 -170 261 387 639 282 408 660 0
-1083 -177 87 0
-1083 -177 206 0
-1083 -177 -58 0
-1083 -177 -65 0
-1083 -177 -72 0
-1083 -177 -79 0
-1083 -177 -2 -163 0
-1083 -177 -9 -163 0
-1083 -177 -44 -184 0
-1083 -177 -51 -184 0
-1083 -177 -121 -226 0
-1083 -177 -128 -226 0
-1083 -177 268 394 646 289 415 667 0
-1083 -86 -170 -198 0
-1083 -86 -177 -205 0
-1089 247 0
-1089 -184 0
-1089 -170 94 0
-1089 -170 199 0
-1089 -170 -44 0
-1089 -170 -65 0
-1089 -170 -72 0
-1089 -170 -79 0
-1089 -170 -9 -156 0
-1089 -170 -16 -156 0
-1089 -170 -51 -177 0
-1089 -170 -58 -177 0
-1089 -170 -121 -219 0
-1089 -170 -128 -219 0
-1089 -170 -135 -219 0
-1089 -170 282 408 660 303 429 681 0
-1089 -177 94 0
-1089 -177 206 0
-1089 -177 -44 0
-1089 -177 -65 0
-1089 -177 -72 0
-1089 -177 -79 0
-1089 -177 -9 -163 0
-1089 -177 -16 -163 0
-1089 -177 -51 -184 0
-1089 -177 -58 -184 0
-1089 -177 -121 -226 0
-1089 -177 -128 -226 0
-1089 -177 -135 -226 0
-1089 -177 289 415 667 310 436 688 0
-1089 -93 -170 -198 0
-1089 -93 -177 -205 0
-1095 247 0
-1095 -184 0
-1095 -170 101 0
-1095 -170 199 0
-1095 -170 -44 0
-1095 -170 -51 0
-1095 -170 -72 0
-1095 -170 -79 0
-1095 -170 -16 -156 0
-1095 -170 -23 -156 0
-1095 -170 -58 -177 0
-1095 -170 -65 -177 0
-1095 -170 -121 -219 0
-1095 -170 -128 -219 0
-1095 -170 -135 -219 0
-1095 -170 -142 -219 0
-1095 -170 303 429 681 324 450 702 0
-1095 -177 101 0
-1095 -177 206 0
-1095 -177 -44 0
-1095 -177 -51 0
-1095 -177 -72 0
-1095 -177 -79 0
-1095 -177 -16 -163 0
-1095 -177 -23 -163 0
-1095 -177 -58 -184 0
-1095 -177 -65 -184 0
-1095 -177 -121 -226 0
-1095 -177 -128 -226 0
-1095 -177 -135 -226 0
-1095 -177 -142 -226 0
-1095 -177 310 436 688 331 457 709 0
-1095 -100 -170 -198 0
-1095 -100 -177 -205 0
-1101 247 0
-1101 -184 0
-1101 -170 108 0
-1101 -170 199 0
-1101 -170 -44 0
-1101 -170 -51 0
-1101 -170 -58 0
-1101 -170 -79 0
-1101 -170 -23 -156 0
-1101 -170 -30 -156 0
-1101 -170 -65 -177 0
-1101 -170 -72 -177 0
-1101 -170 -128 -219 0
-1101 -170 -135 -219 0
-1101 -170 -142 -219 0
-1101 -170 324 450 702 345 471 723 0
-1101 -177 108 0
-1101 -177 206 0
-1101 -177 -44 0
-1101 -177 -51 0
-1101 -177 -58 0
-1101 -177 -79 0
-1101 -177 -23 -163 0
-1101 -177 -30 -163 0
-1101 -177 -65 -184 0
-1101 -177 -72 -184 0
-1101 -177 -128 -226 0
-1101 -177 -135 -226 0
-1101 -177 -142 -226 0
-1101 -177 331 457 709 352 478 730 0
-1101 -107 -170 -198 0
-1101 -107 -177 -205 0
-1107 247 0
-1107 -184 0
-1107 -170 115 0
-1107 -170 199 0
-1107 -170 -44 0
-1107 -170 -51 0
-1107 -170 -58 0
-1107 -170 -65 0
-1107 -170 -30 -156 0
-1107 -170 -37 -156 0
-1107 -170 -72 -177 0
-1107 -170 -79 -177 0
-1107 -170 -135 -219 0
-1107 -170 -142 -219 0
-1107 -170 345 471 723 366 492 744 0
-1107 -177 115 0
-1107 -177 206 0
-1107 -177 -44 0
-1107 -177 -51 0
-1107 -177 -58 0
-1107 -177 -65 0
-1107 -177 -30 -163 0
-1107 -177 -37 -163 0
-1107 -177 -72 -184 0
-1107 -177 -79 -184 0
-1107 -177 -135 -226 0
-1107 -177 -142 -226 0
-1107 -177 352 478 730 373 499 751 0
-1107 -114 -170 -198 0
-1107 -114 -177 -205 0
-1113 247 0
-1113 -226 0
-1113 -212 87 0
-1113 -212 199 0
-1113 -212 -135 0
-1113 -212 -142 0
-1113 -212 -2 -156 0
-1113 -212 -9 -156 0
-1113 -212 -44 -177 0
-1113 -212 -51 -177 0
-1113 -212 -121 -219 0
-1113 -212 -128 -219 0
-1113 -212 261 387 639 282 408 660 0
-1113 -219 87 0
-1113 -219 206 0
-1113 -219 -135 0
-1113 -219 -142 0
-1113 -219 -2 -163 0
-1113 -219 -9 -163 0
-1113 -219 -44 -184 0
-1113 -219 -51 -184 0
-1113 -219 -121 -226 0
-1113 -219 -128 -226 0
-1113 -219 268 394 646 289 415 667 0
-1113 -86 -212 -198 0
-1113 -86 -219 -205 0
-1119 247 0
-1119 -226 0
-1119 -212 94 0
-1119 -212 199 0
-1119 -212 -142 0
-1119 -212 -9 -156 0
-1119 -212 -16 -156 0
-1119 -212 -51 -177 0
-1119 -212 -58 -177 0
-1119 -212 -121 -219 0
-1119 -212 -128 -219 0
-1119 -212 -135 -219 0
-1119 -212 282 408 660 303 429 681 0
-1119 -219 94 0
-1119 -219 206 0
-1119 -219 -142 0
-1119 -219 -9 -163 0
-1119 -219 -16 -163 0
-1119 -219 -51 -184 0
-1119 -219 -58 -184 0
-1119 -219 -121 -226 0
-1119 -219 -128 -226 0
-1119 -219 -135 -226 0
-1119 -219 289 415 667 310 436 688 0
-1119 -93 -212 -198 0
-1119 -93 -219 -205 0
-1125 247 0
-1125 -226 0
-1125 -212 101 0
-1125 -212 199 0
-1125 -212 -16 -156 0
-1125 -212 -23 -156 0
-1125 -212 -58 -177 0
-1125 -212 -65 -177 0
-1125 -212 -121 -219 0
-1125 -212 -128 -219 0
-1125 -212 -135 -219 0
-1125 -212 -142 -219 0
-1125 -212 303 429 681 324 450 702 0
-1125 -219 101 0
-1125 -219 206 0
-1125 -219 -16 -163 0
-1125 -219 -23 -163 0
-1125 -219 -58 -184 0
-1125 -219 -65 -184 0
-1125 -219 -121 -226 0
-1125 -219 -128 -226 0
-1125 -219 -135 -226 0
-1125 -219 -142 -226 0
-1125 -219 310 436 688 331 457 709 0
-1125 -100 -212 -198 0
-1125 -100 -219 -205 0
-1131 247 0
-1131 -226 0
-1131 -212 108 0
-1131 -212 199 0
-1131 -212 -121 0
-1131 -212 -23 -156 0
-1131 -212 -30 -156 0
-1131 -212 -65 -177 0
-1131 -212 -72 -177 0
-1131 -212 -128 -219 0
-1131 -212 -135 -219 0
-1131 -212 -142 -219 0
-1131 -212 324 450 702 345 471 723 0
-1131 -219 108 0
-1131 -219 206 0
-1131 -219 -121 0
-1131 -219 -23 -163 0
-1131 -219 -30 -163 0
-1131 -219 -65 -184 0
-1131 -219 -72 -184 0
-1131 -219 -128 -226 0
-1131 -219 -135 -226 0
-1131 -219 -142 -226 0
-1131 -219 331 457 709 352 478 730 0
-1131 -107 -212 -198 0
-1131 -107 -219 -205 0
-1137 247 0
-1137 -226 0
-1137 -212 115 0
-1137 -212 199 0
-1137 -212 -121 0
-1137 -212 -128 0
-1137 -212 -30 -156 0
-1137 -212 -37 -156 0
-1137 -212 -72 -177 0
-1137 -212 -79 -177 0
-1137 -212 -135 -219 0
-1137 -212 -142 -219 0
-1137 -212 345 471 723 366 492 744 0
-1137 -219 115 0
-1137 -219 206 0
-1137 -219 -121 0
-1137 -219 -128 0
-1137 -219 -30 -163 0
-1137 -219 -37 -163 0
-1137 -219 -72 -184 0
-1137 -219 -79 -184 0
-1137 -219 -135 -226 0
-1137 -219 -142 -226 0
-1137 -219 352 478 730 373 499 751 0
-1137 -114 -212 -198 0
-1137 -114 -219 -205 0
-1143 247 0
-1143 87 0
-1143 192 0
-1143 -86 -191 0
-1143 -2 -149 0
-1143 -9 -149 0
-1143 -44 -170 0
-1143 -51 -170 0
-1143 -121 -212 0
-1143 -128 -212 0
-1149 247 0
-1149 94 0
-1149 192 0
-1149 -93 -191 0
-1149 -9 -149 0
-1149 -16 -149 0
-1149 -51 -170 0
-1149 -58 -170 0
-1149 -121 -212 0
-1149 -128 -212 0
-1149 -135 -212 0
-1155 247 0
-1155 101 0
-1155 192 0
-1155 -100 -191 0
-1155 -16 -149 0
-1155 -23 -149 0
-1155 -58 -170 0
-1155 -65 -170 0
-1155 -121 -212 0
-1155 -128 -212 0
-1155 -135 -212 0
-1155 -142 -212 0
-1161 247 0
-1161 108 0
-1161 192 0
-1161 -107 -191 0
-1161 -23 -149 0
-1161 -30 -149 0
-1161 -65 -170 0
-1161 -72 -170 0
-1161 -128 -212 0
-1161 -135 -212 0
-1161 -142 -212 0
-1167 247 0
-1167 115 0
-1167 192 0
-1167 -114 -191 0
-1167 -30 -149 0
-1167 -37 -149 0
-1167 -72 -170 0
-1167 -79 -170 0
-1167 -135 -212 0
-1167 -142 -212 0
-1173 254 0
-1173 -163 0
-1173 -149 122 0
-1173 -149 220 0
-1173 -149 -23 0
-1173 -149 -30 0
-1173 -149 -37 0
-1173 -149 -2 -156 0
-1173 -149 -9 -156 0
-1173 -149 -16 -156 0
-1173 -149 -44 -177 0
-1173 -149 -51 -177 0
-1173 -149 -58 -177 0
-1173 -149 -86 -198 0
-1173 -149 -93 -198 0
-1173 -149 -100 -198 0
-1173 -149 261 387 513 282 408 534 0
-1173 -149 261 387 513 303 429 555 0
-1173 -149 282 408 534 303 429 555 0
-1173 -156 122 0
-1173 -156 227 0
-1173 -156 -23 0
-1173 -156 -30 0
-1173 -156 -37 0
-1173 -156 -2 -163 0
-1173 -156 -9 -163 0
-1173 -156 -16 -163 0
-1173 -156 -44 -184 0
-1173 -156 -51 -184 0
-1173 -156 -58 -184 0
-1173 -156 -86 -205 0
-1173 -156 -93 -205 0
-1173 -156 -100 -205 0
-1173 -156 268 394 520 289 415 541 0
-1173 -156 268 394 520 310 436 562 0
-1173 -156 289 415 541 310 436 562 0
-1173 -121 -149 -219 0
-1173 -121 -156 -226 0
-1179 254 0
-1179 -163 0
-1179 -149 129 0
-1179 -149 220 0
-1179 -149 -2 0
-1179 -149 -30 0
-1179 -149 -37 0
-1179 -149 -9 -156 0
-1179 -149 -16 -156 0
-1179 -149 -23 -156 0
-1179 -149 -51 -177 0
-1179 -149 -58 -177 0
-1179 -149 -65 -177 0
-1179 -149 -86 -198 0
-1179 -149 -93 -198 0
-1179 -149 -100 -198 0
-1179 -149 -107 -198 0
-1179 -149 282 408 534 303 429 555 0
-1179 -149 282 408 534 324 450 576 0
-1179 -149 303 429 555 324 450 576 0
-1179 -156 129 0
-1179 -156 227 0
-1179 -156 -2 0
-1179 -156 -30 0
-1179 -156 -37 0
-1179 -156 -9 -163 0
-1179 -156 -16 -163 0
-1179 -156 -23 -163 0
-1179 -156 -51 -184 0
-1179 -156 -58 -184 0
-1179 -156 -65 -184 0
-1179 -156 -86 -205 0
-1179 -156 -93 -205 0
-1179 -156 -100 -205 0
-1179 -156 -107 -205 0
-1179 -156 289 415 541 310 436 562 0
-1179 -156 289 415 541 331 457 583 0
-1179 -156 310 436 562 331 457 583 0
-1179 -128 -149 -219 0
-1179 -128 -156 -226 0
-1185 254 0
-1185 -163 0
-1185 -149 136 0
-1185 -149 220 0
-1185 -149 -2 0
-1185 -149 -9 0
-1185 -149 -37 0
-1185 -149 -16 -156 0
-1185 -149 -23 -156 0
-1185 -149 -30 -156 0
-1185 -149 -58 -177 0
-1185 -149 -65 -177 0
-1185 -149 -72 -177 0
-1185 -149 -93 -198 0
-1185 -149 -100 -198 0
-1185 -149 -107 -198 0
-1185 -149 -114 -198 0
-1185 -149 303 429 555 324 450 576 0
-1185 -149 303 429 555 345 471 597 0
-1185 -149 324 450 576 345 471 597 0
-1185 -156 136 0
-1185 -156 227 0
-1185 -156 -2 0
-1185 -156 -9 0
-1185 -156 -37 0
-1185 -156 -16 -163 0
-1185 -156 -23 -163 0
-1185 -156 -30 -163 0
-1185 -156 -58 -184 0
-1185 -156 -65 -184 0
-1185 -156 -72 -184 0
-1185 -156 -93 -205 0
-1185 -156 -100 -205 0
-1185 -156 -107 -205 0
-1185 -156 -114 -205 0
-1185 -156 310 436 562 331 457 583 0
-1185 -156 310 436 562 352 478 604 0
-1185 -156 331 457 583 352 478 604 0
-1185 -135 -149 -219 0
-1185 -135 -156 -226 0
-1191 254 0
-1191 -163 0
-1191 -149 143 0
-1191 -149 220 0
-1191 -149 -2 0
-1191 -149 -9 0
-1191 -149 -16 0
-1191 -149 -23 -156 0
-1191 -149 -30 -156 0
-1191 -149 -37 -156 0
-1191 -149 -65 -177 0
-1191 -149 -72 -177 0
-1191 -149 -79 -177 0
-1191 -149 -100 -198 0
-1191 -149 -107 -198 0
-1191 -149 -114 -198 0
-1191 -149 324 450 576 345 471 597 0
-1191 -149 324 450 576 366 492 618 0
-1191 -149 345 471 597 366 492 618 0
-1191 -156 143 0
-1191 -156 227 0
-1191 -156 -2 0
-1191 -156 -9 0
-1191 -156 -16 0
-1191 -156 -23 -163 0
-1191 -156 -30 -163 0
-1191 -156 -37 -163 0
-1191 -156 -65 -184 0
-1191 -156 -72 -184 0
-1191 -156 -79 -184 0
-1191 -156 -100 -205 0
-1191 -156 -107 -205 0
-1191 -156 -114 -205 0
-1191 -156 331 457 583 352 478 604 0
-1191 -156 331 457 583 373 499 625 0
-1191 -156 352 478 604 373 499 625 0
-1191 -142 -149 -219 0
-1191 -142 -156 -226 0
-1197 254 0
-1197 -184 0
-1197 -170 122 0
-1197 -170 220 0
-1197 -170 -65 0
-1197 -170 -72 0
-1197 -170 -79 0
-1197 -170 -2 -156 0
-1197 -170 -9 -156 0
-1197 -170 -16 -156 0
-1197 -170 -44 -177 0
-1197 -170 -51 -177 0
-1197 -170 -58 -177 0
-1197 -170 -86 -198 0
-1197 -170 -93 -198 0
-1197 -170 -100 -198 0
-1197 -170 261 387 513 282 408 534 0
-1197 -170 261 387 513 303 429 555 0
-1197 -170 282 408 534 303 429 555 0
-1197 -177 122 0
-1197 -177 227 0
-1197 -177 -65 0
-1197 -177 -72 0
-1197 -177 -79 0
-1197 -177 -2 -163 0
-1197 -177 -9 -163 0
-1197 -177 -16 -163 0
-1197 -177 -44 -184 0
-1197 -177 -51 -184 0
-1197 -177 -58 -184 0
-1197 -177 -86 -205 0
-1197 -177 -93 -205 0
-1197 -177 -100 -205 0
-1197 -177 268 394 520 289 415 541 0
-1197 -177 268 394 520 310 436 562 0
-1197 -177 289 415 541 310 436 562 0
-1197 -121 -170 -219 0
-1197 -121 -177 -226 0
-1203 254 0
-1203 -184 0
-1203 -170 129 0
-1203 -170 220 0
-1203 -170 -44 0
-1203 -170 -72 0
-1203 -170 -79 0
-1203 -170 -9 -156 0
-1203 -170 -16 -156 0
-1203 -170 -23 -156 0
-1203 -170 -51 -177 0
-1203 -170 -58 -177 0
-1203 -170 -65 -177 0
-1203 -170 -86 -198 0
-1203 -170 -93 -198 0
-1203 -170 -100 -198 0
-1203 -170 -107 -198 0
-1203 -170 282 408 534 303 429 555 0
-1203 -170 282 408 534 324 450 576 0
-1203 -170 303 429 555 324 450 576 0
-1203 -177 129 0
-1203 -177 227 0
-1203 -177 -44 0
-1203 -177 -72 0
-1203 -177 -79 0
-1203 -177 -9 -163 0
-1203 -177 -16 -163 0
-1203 -177 -23 -163 0
-1203 -177 -51 -184 0
-1203 -177 -58 -184 0
-1203 -177 -65 -184 0
-1203 -177 -86 -205 0
-1203 -177 -93 -205 0
-1203 -177 -100 -205 0
-1203 -177 -107 -205 0
-1203 -177 289 415 541 310 436 562 0
-1203 -177 289 415 541 331 457 583 0
-1203 -177 310 436 562 331 457 583 0
-1203 -128 -170 -219 0
-1203 -128 -177 -226 0
-1209 254 0
-1209 -184 0
-1209 -170 136 0
-1209 -170 220 0
-1209 -170 -44 0
-1209 -170 -51 0
-1209 -170 -79 0
-1209 -170 -16 -156 0
-1209 -170 -23 -156 0
-1209 -170 -30 -156 0
-1209 -170 -58 -177 0
-1209 -170 -65 -177 0
-1209 -170 -72 -177 0
-1209 -170 -93 -198 0
-1209 -170 -100 -198 0
-1209 -170 -107 -198 0
-1209 -170 -114 -198 0
-1209 -170 303 429 555 324 450 576 0
-1209 -170 303 429 555 345 471 597 0
-1209 -170 324 450 576 345 471 597 0
-1209 -177 136 0
-1209 -177 227 0
-1209 -177 -44 0
-1209 -177 -51 0
-1209 -177 -79 0
-1209 -177 -16 -163 0
-1209 -177 -23 -163 0
-1209 -177 -30 -163 0
-1209 -177 -58 -184 0
-1209 -177 -65 -184 0
-1209 -177 -72 -184 0
-1209 -177 -93 -205 0
-1209 -177 -100 -205 0
-1209 -177 -107 -205 0
-1209 -177 -114 -205 0
-1209 -177 310 436 562 331 457 583 0
-1209 -177 310 436 562 352 478 604 0
-1209 -177 331 457 583 352 478 604 0
-1209 -135 -170 -219 0
-1209 -135 -177 -226 0
-1215 254 0
-1215 -184 0
-1215 -170 143 0
-1215 -170 220 0
-1215 -170 -44 0
-1215 -170 -51 0
-1215 -170 -58 0
-1215 -170 -23 -156 0
-1215 -170 -30 -156 0
-1215 -170 -37 -156 0
-1215 -170 -65 -177 0
-1215 -170 -72 -177 0
-1215 -170 -79 -177 0
-1215 -170 -100 -198 0
-1215 -170 -107 -198 0
-1215 -170 -114 -198 0
-1215 -170 324 450 576 345 471 597 0
-1215 -170 324 450 576 366 492 618 0
-1215 -170 345 471 597 366 492 618 0
-1215 -177 143 0
-1215 -177 227 0
-1215 -177 -44 0
-1215 -177 -51 0
-1215 -177 -58 0
-1215 -177 -23 -163 0
-1215 -177 -30 -163 0
-1215 -177 -37 -163 0
-1215 -177 -65 -184 0
-1215 -177 -72 -184 0
-1215 -177 -79 -184 0
-1215 -177 -100 -205 0
-1215 -177 -107 -205 0
-1215 -177 -114 -205 0
-1215 -177 331 457 583 352 478 604 0
-1215 -177 331 457 583 373 499 625 0
-1215 -177 352 478 604 373 499 625 0
-1215 -142 -170 -219 0
-1215 -142 -177 -226 0
-1221 254 0
-1221 -205 0
-1221 -191 122 0
-1221 -191 220 0
-1221 -191 -107 0
-1221 -191 -114 0
-1221 -191 -2 -156 0
-1221 -191 -9 -156 0
-1221 -191 -16 -156 0
-1221 -191 -44 -177 0
-1221 -191 -51 -177 0
-1221 -191 -58 -177 0
-1221 -191 -86 -198 0
-1221 -191 -93 -198 0
-1221 -191 -100 -198 0
-1221 -191 261 387 513 282 408 534 0
-1221 -191 261 387 513 303 429 555 0
-1221 -191 282 408 534 303 429 555 0
-1221 -198 122 0
-1221 -198 227 0
-1221 -198 -107 0
-1221 -198 -114 0
-1221 -198 -2 -163 0
-1221 -198 -9 -163 0
-1221 -198 -16 -163 0
-1221 -198 -44 -184 0
-1221 -198 -51 -184 0
-1221 -198 -58 -184 0
-1221 -198 -86 -205 0
-1221 -198 -93 -205 0
-1221 -198 -100 -205 0
-1221 -198 268 394 520 289 415 541 0
-1221 -198 268 394 520 310 436 562 0
-1221 -198 289 415 541 310 436 562 0
-1221 -121 -191 -219 0
-1221 -121 -198 -226 0
-1227 254 0
-1227 -205 0
-1227 -191 129 0
-1227 -191 220 0
-1227 -191 -114 0
-1227 -191 -9 -156 0
-1227 -191 -16 -156 0
-1227 -191 -23 -156 0
-1227 -191 -51 -177 0
-1227 -191 -58 -177 0
-1227 -191 -65 -177 0
-1227 -191 -86 -198 0
-1227 -191 -93 -198 0
-1227 -191 -100 -198 0
-1227 -191 -107 -198 0
-1227 -191 282 408 534 303 429 555 0
-1227 -191 282 408 534 324 450 576 0
-1227 -191 303 429 555 324 450 576 0
-1227 -198 129 0
-1227 -198 227 0
-1227 -198 -114 0
-1227 -198 -9 -163 0
-1227 -198 -16 -163 0
-1227 -198 -23 -163 0
-1227 -198 -51 -184 0
-1227 -198 -58 -184 0
-1227 -198 -65 -184 0
-1227 -198 -86 -205 0
-1227 -198 -93 -205 0
-1227 -198 -100 -205 0
-1227 -198 -107 -205 0
-1227 -198 289 415 541 310 436 562 0
-1227 -198 289 415 541 331 457 583 0
-1227 -198 310 436 562 331 457 583 0
-1227 -128 -191 -219 0
-1227 -128 -198 -226 0
-1233 254 0
-1233 -205 0
-1233 -191 136 0
-1233 -191 220 0
-1233 -191 -86 0
-1233 -191 -16 -156 0
-1233 -191 -23 -156 0
-1233 -191 -30 -156 0
-1233 -191 -58 -177 0
-1233 -191 -65 -177 0
-1233 -191 -72 -177 0
-1233 -191 -93 -198 0
-1233 -191 -100 -198 0
-1233 -191 -107 -198 0
-1233 -191 -114 -198 0
-1233 -191 303 429 555 324 450 576 0
-1233 -191 303 429 555 345 471 597 0
-1233 -191 324 450 576 345 471 597 0
-1233 -198 136 0
-1233 -198 227 0
-1233 -198 -86 0
-1233 -198 -16 -163 0
-1233 -198 -23 -163 0
-1233 -198 -30 -163 0
-1233 -198 -58 -184 0
-1233 -198 -65 -184 0
-1233 -198 -72 -184 0
-1233 -198 -93 -205 0
-1233 -198 -100 -205 0
-1233 -198 -107 -205 0
-1233 -198 -114 -205 0
-1233 -198 310 436 562 331 457 583 0
-1233 -198 310 436 562 352 478 604 0
-1233 -198 331 457 583 352 478 604 0
-1233 -135 -191 -219 0
-1233 -135 -198 -226 0
-1239 254 0
-1239 -205 0
-1239 -191 143 0
-1239 -191 220 0
-1239 -191 -86 0
-1239 -191 -93 0
-1239 -191 -23 -156 0
-1239 -191 -30 -156 0
-1239 -191 -37 -156 0
-1239 -191 -65 -177 0
-1239 -191 -72 -177 0
-1239 -191 -79 -177 0
-1239 -191 -100 -198 0
-1239 -191 -107 -198 0
-1239 -191 -114 -198 0
-1239 -191 324 450 576 345 471 597 0
-1239 -191 324 450 576 366 492 618 0
-1239 -191 345 471 597 366 492 618 0
-1239 -198 143 0
-1239 -198 227 0
-1239 -198 -86 0
-1239 -198 -93 0
-1239 -198 -23 -163 0
-1239 -198 -30 -163 0
-1239 -198 -37 -163 0
-1239 -198 -65 -184 0
-1239 -198 -72 -184 0
-1239 -198 -79 -184 0
-1239 -198 -100 -205 0
-1239 -198 -107 -205 0
-1239 -198 -114 -205 0
-1239 -198 331 457 583 352 478 604 0
-1239 -198 331 457 583 373 499 625 0
-1239 -198 352 478 604 373 499 625 0
-1239 -142 -191 -219 0
-1239 -142 -198 -226 0
-1245 254 0
-1245 122 0
-1245 213 0
-1245 -121 -212 0
-1245 -2 -149 0
-1245 -9 -149 0
-1245 -16 -149 0
-1245 -44 -170 0
-1245 -51 -170 0
-1245 -58 -170 0
-1245 -86 -191 0
-1245 -93 -191 0
-1245 -100 -191 0
-1251 254 0
-1251 129 0
-1251 213 0
-1251 -128 -212 0
-1251 -9 -149 0
-1251 -16 -149 0
-1251 -23 -149 0
-1251 -51 -170 0
-1251 -58 -170 0
-1251 -65 -170 0
-1251 -86 -191 0
-1251 -93 -191 0
-1251 -100 -191 0
-1251 -107 -191 0
-1257 254 0
-1257 136 0
-1257 213 0
-1257 -135 -212 0
-1257 -16 -149 0
-1257 -23 -149 0
-1257 -30 -149 0
-1257 -58 -170 0
-1257 -65 -170 0
-1257 -72 -170 0
-1257 -93 -191 0
-1257 -100 -191 0
-1257 -107 -191 0
-1257 -114 -191 0
-1263 254 0
-1263 143 0
-1263 213 0
-1263 -142 -212 0
-1263 -23 -149 0
-1263 -30 -149 0
-1263 -37 -149 0
-1263 -65 -170 0
-1263 -72 -170 0
-1263 -79 -170 0
-1263 -100 -191 0
-1263 -107 -191 0
-1263 -114 -191 0
766 772 778 784 790 796 802 808 814 820 826 832 838 844 850 856 862 868 874 880 886 892 898 904 910 916 922 928 934 940 946 952 958 964 970 976 982 988 994 1000 1006 1012 1018 1024 1030 1036 1042 1048 1054 1060 1066 1072 1078 1084 1090 1096 1102 1108 1114 1120 1126 1132 1138 1144 1150 1156 1162 1168 1174 1180 1186 1192 1198 1204 1210 1216 1222 1228 1234 1240 1246 1252 1258 1264 0
-766 -772 0
-766 -778 0
-766 -784 0
-766 -790 0
-766 -796 0
-766 -802 0
-766 -808 0
-766 -814 0
-766 -820 0
-766 -826 0
-766 -832 0
-766 -838 0
-766 -844 0
-766 -850 0
-766 -856 0
-766 -862 0
-766 -868 0
-766 -874 0
-766 -880 0
-766 -886 0
-766 -892 0
-766 -898 0
-766 -904 0
-766 -910 0
-766 -916 0
-766 -922 0
-766 -928 0
-766 -934 0
-766 -940 0
-766 -946 0
-766 -952 0
-766 -958 0
-766 -964 0
-766 -970 0
-766 -976 0
-766 -982 0
-766 -988 0
-766 -994 0
-766 -1000 0
-766 -1006 0
-766 -1012 0
-766 -1018 0
-766 -1024 0
-766 -1030 0
-766 -1036 0
-766 -1042 0
-766 -1048 0
-766 -1054 0
-766 -1060 0
-766 -1066 0
-766 -1072 0
-766 -1078 0
-766 -1084 0
-766 -1090 0
-766 -1096 0
-766 -1102 0
-766 -1108 0
-766 -1114 0
-766 -1120 0
-766 -1126 0
-766 -1132 0
-766 -1138 0
-766 -1144 0
-766 -1150 0
-766 -1156 0
-766 -1162 0
-766 -1168 0
-766 -1174 0
-766 -1180 0
-766 -1186 0
-766 -1192 0
-766 -1198 0
-766 -1204 0
-766 -1210 0
-766 -1216 0
-766 -1222 0
-766 -1228 0
-766 -1234 0
-766 -1240 0
-766 -1246 0
-766 -1252 0
-766 -1258 0
-766 -1264 0
-772 -778 0
-772 -784 0
-772 -790 0
-772 -796 0
-772 -802 0
-772 -808 0
-772 -814 0
-772 -820 0
-772 -826 0
-772 -832 0
-772 -838 0
-772 -844 0
-772 -850 0
-772 -856 0
-772 -862 0
-772 -868 0
-772 -874 0
-772 -880 0
-772 -886 0
-772 -892 0
-772 -898 0
-772 -904 0
-772 -910 0
-772 -916 0
-772 -922 0
-772 -928 0
-772 -934 0
-772 -940 0
-772 -946 0
-772 -952 0
-772 -958 0
-772 -964 0
-772 -970 0
-772 -976 0
-772 -982 0
-772 -988 0
-772 -994 0
-772 -1000 0
-772 -1006 0
-772 -1012 0
-772 -1018 0
-772 -1024 0
-772 -1030 0
-772 -1036 0
-772 -1042 0
-772 -1048 0
-772 -1054 0
-772 -1060 0
-772 -1066 0
-772 -1072 0
-772 -1078 0
-772 -1084 0
-772 -1090 0
-772 -1096 0
-772 -1102 0
-772 -1108 0
-772 -1114 0
-772 -1120 0
-772 -1126 0
-772 -1132 0
-772 -1138 0
-772 -1144 0
-772 -1150 0
-772 -1156 0
-772 -1162 0
-772 -1168 0
-772 -1174 0
-772 -1180 0
-772 -1186 0
-772 -1192 0
-772 -1198 0
-772 -1204 0
-772 -1210 0
-772 -1216 0
-772 -1222 0
-772 -1228 0
-772 -1234 0
-772 -1240 0
-772 -1246 0
-772 -1252 0
-772 -1258 0
-772 -1264 0
-778 -784 0
-778 -790 0
-778 -796 0
-778 -802 0
-778 -808 0
-778 -814 0
-778 -820 0
-778 -826 0
-778 -832 0
-778 -838 0
-778 -844 0
-778 -850 0
-778 -856 0
-778 -862 0
-778 -868 0
-778 -874 0
-778 -880 0
-778 -886 0
-778 -892 0
-778 -898 0
-778 -904 0
-778 -910 0
-778 -916 0
-778 -922 0
-778 -928 0
-778 -934 0
-778 -940 0
-778 -946 0
-778 -952 0
-778 -958 0
-778 -964 0
-778 -970 0
-778 -976 0
-778 -982 0
-778 -988 0
-778 -994 0
-778 -1000 0
-778 -1006 0
-778 -1012 0
-778 -1018 0
-778 -1024 0
-778 -1030 0
-778 -1036 0
-778 -1042 0
-778 -1048 0
-778 -1054 0
-778 -1060 0
-778 -1066 0
-778 -1072 0
-778 -1078 0
-778 -1084 0
-778 -1090 0
-778 -1096 0
-778 -1102 0
-778 -1108 0
-778 -1114 0
-778 -1120 0
-778 -1126 0
-778 -1132 0
-778 -1138 0
-778 -1144 0
-778 -1150 0
-778 -1156 0
-778 -1162 0
-778 -1168 0
-778 -1174 0
-778 -1180 0
-778 -1186 0
-778 -1192 0
-778 -1198 0
-778 -1204 0
-778 -1210 0
-778 -1216 0
-778 -1222 0
-778 -1228 0
-778 -1234 0
-778 -1240 0
-778 -1246 0
-778 -1252 0
-778 -1258 0
-778 -1264 0
-784 -790 0
-784 -796 0
-784 -802 0
-784 -808 0
-784 -814 0
-784 -820 0
-784 -826 0
-784 -832 0
-784 -838 0
-784 -844 0
-784 -850 0
-784 -856 0
-784 -862 0
-784 -868 0
-784 -874 0
-784 -880 0
-784 -886 0
-784 -892 0
-784 -898 0
-784 -904 0
-784 -910 0
-784 -916 0
-784 -922 0
-784 -928 0
-784 -934 0
-784 -940 0
-784 -946 0
-784 -952 0
-784 -958 0
-784 -964 0
-784 -970 0
-784 -976 0
-784 -982 0
-784 -988 0
-784 -994 0
-784 -1000 0
-784 -1006 0
-784 -1012 0
-784 -1018 0
-784 -1024 0
-784 -1030 0
-784 -1036 0
-784 -1042 0
-784 -1048 0
-784 -1054 0
-784 -1060 0
-784 -1066 0
-784 -1072 0
-784 -1078 0
-784 -1084 0
-784 -1090 0
-784 -1096 0
-784 -1102 0
-784 -1108 0
-784 -1114 0
-784 -1120 0
-784 -1126 0
-784 -1132 0
-784 -1138 0
-784 -1144 0
-784 -1150 0
-784 -1156 0
-784 -1162 0
-784 -1168 0
-784 -1174 0
-784 -1180 0
-784 -1186 0
-784 -1192 0
-784 -1198 0
-784 -1204 0
-784 -1210 0
-784 -1216 0
-784 -1222 0
-784 -1228 0
-784 -1234 0
-784 -1240 0
-784 -1246 0
-784 -1252 0
-784 -1258 0
-784 -1264 0
-790 -796 0
-790 -802 0
-790 -808 0
-790 -814 0
-790 -820 0
-790 -826 0
-790 -832 0
-790 -838 0
-790 -844 0
-790 -850 0
-790 -856 0
-790 -862 0
-790 -868 0
-790 -874 0
-790 -880 0
-790 -886 0
-790 -892 0
-790 -898 0
-790 -904 0
-790 -910 0
-790 -916 0
-790 -922 0
-790 -928 0
-790 -934 0
-790 -940 0
-790 -946 0
-790 -952 0
-790 -958 0
-790 -964 0
-790 -970 0
-790 -976 0
-790 -982 0
-790 -988 0
-790 -994 0
-790 -1000 0
-790 -1006 0
-790 -1012 0
-790 -1018 0
-790 -1024 0
-790 -1030 0
-790 -1036 0
-790 -1042 0
-790 -1048 0
-790 -1054 0
-790 -1060 0
-790 -1066 0
-790 -1072 0
-790 -1078 0
-790 -1084 0
-790 -1090 0
-790 -1096 0
-790 -1102 0
-790 -1108 0
-790 -1114 0
-790 -1120 0
-790 -1126 0
-790 -1132 0
-790 -1138 0
-790 -1144 0
-790 -1150 0
-790 -1156 0
-790 -1162 0
-790 -1168 0
-790 -1174 0
-790 -1180 0
-790 -1186 0
-790 -1192 0
-790 -1198 0
-790 -1204 0
-790 -1210 0
-790 -1216 0
-790 -1222 0
-790 -1228 0
-790 -1234 0
-790 -1240 0
-790 -1246 0
-790 -1252 0
-790 -1258 0
-790 -1264 0
-796 -802 0
-796 -808 0
-796 -814 0
-796 -820 0
-796 -826 0
-796 -832 0
-796 -838 0
-796 -844 0
-796 -850 0
-796 -856 0
-796 -862 0
-796 -868 0
-796 -874 0
-796 -880 0
-796 -886 0
-796 -892 0
-796 -898 0
-796 -904 0
-796 -910 0
-796 -916 0
-796 -922 0
-796 -928 0
-796 -934 0
-796 -940 0
-796 -946 0
-796 -952 0
-796 -958 0
-796 -964 0
-796 -970 0
-796 -976 0
-796 -982 0
-796 -988 0
-796 -994 0
-796 -1000 0
-796 -1006 0
-796 -1012 0
-796 -1018 0
-796 -1024 0
-796 -1030 0
-796 -1036 0
-796 -1042 0
-796 -1048 0
-796 -1054 0
-796 -1060 0
-796 -1066 0
-796 -1072 0
-796 -1078 0
-796 -1084 0
-796 -1090 0
-796 -1096 0
-796 -1102 0
-796 -1108 0
-796 -1114 0
-796 -1120 0
-796 -1126 0
-796 -1132 0
-796 -1138 0
-796 -1144 0
-796 -1150 0
-796 -1156 0
-796 -1162 0
-796 -1168 0
-796 -1174 0
-796 -1180 0
-796 -1186 0
-796 -1192 0
-796 -1198 0
-796 -1204 0
-796 -1210 0
-796 -1216 0
-796 -1222 0
-796 -1228 0
-796 -1234 0
-796 -1240 0
-796 -1246 0
-796 -1252 0
-796 -1258 0
-796 -1264 0
-802 -808 0
-802 -814 0
-802 -820 0
-802 -826 0
-802 -832 0
-802 -838 0
-802 -844 0
-802 -850 0
-802 -856 0
-802 -862 0
-802 -868 0
-802 -874 0
-802 -880 0
-802 -886 0
-802 -892 0
-802 -898 0
-802 -904 0
-802 -910 0
-802 -916 0
-802 -922 0
-802 -928 0
-802 -934 0
-802 -940 0
-802 -946 0
-802 -952 0
-802 -958 0
-802 -964 0
-802 -970 0
-802 -976 0
-802 -982 0
-802 -988 0
-802 -994 0
-802 -1000 0
-802 -1006 0
-802 -1012 0
-802 -1018 0
-802 -1024 0
-802 -1030 0
-802 -1036 0
-802 -1042 0
-802 -1048 0
-802 -1054 0
-802 -1060 0
-802 -1066 0
-802 -1072 0
-802 -1078 0
-802 -1084 0
-802 -1090 0
-802 -1096 0
-802 -1102 0
-802 -1108 0
-802 -1114 0
-802 -1120 0
-802 -1126 0
-802 -1132 0
-802 -1138 0
-802 -1144 0
-802 -1150 0
-802 -1156 0
-802 -1162 0
-802 -1168 0
-802 -1174 0
-802 -1180 0
-802 -1186 0
-802 -1192 0
-802 -1198 0
-802 -1204 0
-802 -1210 0
-802 -1216 0
-802 -1222 0
-802 -1228 0
-802 -1234 0
-802 -1240 0
-802 -1246 0
-802 -1252 0
-802 -1258 0
-802 -1264 0
-808 -814 0
-808 -820 0
-808 -826 0
-808 -832 0
-808 -838 0
-808 -844 0
-808 -850 0
-808 -856 0
-808 -862 0
-808 -868 0
-808 -874 0
-808 -880 0
-808 -886 0
-808 -892 0
-808 -898 0
-808 -904 0
-808 -910 0
-808 -916 0
-808 -922 0
-808 -928 0
-808 -934 0
-808 -940 0
-808 -946 0
-808 -952 0
-808 -958 0
-808 -964 0
-808 -970 0
-808 -976 0
-808 -982 0
-808 -988 0
-808 -994 0
-808 -1000 0
-808 -1006 0
-808 -1012 0
-808 -1018 0
-808 -1024 0
-808 -1030 0
-808 -1036 0
-808 -1042 0
-808 -1048 0
-808 -1054 0
-808 -1060 0
-808 -1066 0
-808 -1072 0
-808 -1078 0
-808 -1084 0
-808 -1090 0
-808 -1096 0
-808 -1102 0
-808 -1108 0
-808 -1114 0
-808 -1120 0
-808 -1126 0
-808 -1132 0
-808 -1138 0
-808 -1144 0
-808 -1150 0
-808 -1156 0
-808 -1162 0
-808 -1168 0
-808 -1174 0
-808 -1180 0
-808 -1186 0
-808 -1192 0
-808 -1198 0
-808 -1204 0
-808 -1210 0
-808 -1216 0
-808 -1222 0
-808 -1228 0
-808 -1234 0
-808 -1240 0
-808 -1246 0
-808 -1252 0
-808 -1258 0
-808 -1264 0
-814 -820 0
-814 -826 0
-814 -832 0
-814 -838 0
-814 -844 0
-814 -850 0
-814 -856 0
-814 -862 0
-814 -868 0
-814 -874 0
-814 -880 0
-814 -886 0
-814 -892 0
-814 -898 0
-814 -904 0
-814 -910 0
-814 -916 0
-814 -922 0
-814 -928 0
-814 -934 0
-814 -940 0
-814 -946 0
-814 -952 0
-814 -958 0
-814 -964 0
-814 -970 0
-814 -976 0
-814 -982 0
-814 -988 0
-814 -994 0
-814 -1000 0
-814 -1006 0
-814 -1012 0
-814 -1018 0
-814 -1024 0
-814 -1030 0
-814 -1036 0
-814 -1042 0
-814 -1048 0
-814 -1054 0
-814 -1060 0
-814 -1066 0
-814 -1072 0
-814 -1078 0
-814 -1084 0
-814 -1090 0
-814 -1096 0
-814 -1102 0
-814 -1108 0
-814 -1114 0
-814 -1120 0
-814 -1126 0
-814 -1132 0
-814 -1138 0
-814 -1144 0
-814 -1150 0
-814 -1156 0
-814 -1162 0
-814 -1168 0
-814 -1174 0
-814 -1180 0
-814 -1186 0
-814 -1192 0
-814 -1198 0
-814 -1204 0
-814 -1210 0
-814 -1216 0
-814 -1222 0
-814 -1228 0
-814 -1234 0
-814 -1240 0
-814 -1246 0
-814 -1252 0
-814 -1258 0
-814 -1264 0
-820 -826 0
-820 -832 0
-820 -838 0
-820 -844 0
-820 -850 0
-820 -856 0
-820 -862 0
-820 -868 0
-820 -874 0
-820 -880 0
-820 -886 0
-820 -892 0
-820 -898 0
-820 -904 0
-820 -910 0
-820 -916 0
-820 -922 0
-820 -928 0
-820 -934 0
-820 -940 0
-820 -946 0
-820 -952 0
-820 -958 0
-820 -964 0
-820 -970 0
-820 -976 0
-820 -982 0
-820 -988 0
-820 -994 0
-820 -1000 0
-820 -1006 0
-820 -1012 0
-820 -1018 0
-820 -1024 0
-820 -1030 0
-820 -1036 0
-820 -1042 0
-820 -1048 0
-820 -1054 0
-820 -1060 0
-820 -1066 0
-820 -1072 0
-820 -1078 0
-820 -1084 0
-820 -1090 0
-820 -1096 0
-820 -1102 0
-820 -1108 0
-820 -1114 0
-820 -1120 0
-820 -1126 0
-820 -1132 0
-820 -1138 0
-820 -1144 0
-820 -1150 0
-820 -1156 0
-820 -1162 0
-820 -1168 0
-820 -1174 0
-820 -1180 0
-820 -1186 0
-820 -1192 0
-820 -1198 0
-820 -1204 0
-820 -1210 0
-820 -1216 0
-820 -1222 0
-820 -1228 0
-820 -1234 0
-820 -1240 0
-820 -1246 0
-820 -1252 0
-820 -1258 0
-820 -1264 0
-826 -832 0
-826 -838 0
-826 -844 0
-826 -850 0
-826 -856 0
-826 -862 0
-826 -868 0
-826 -874 0
-826 -880 0
-826 -886 0
-826 -892 0
-826 -898 0
-826 -904 0
-826 -910 0
-826 -916 0
-826 -922 0
-826 -928 0
-826 -934 0
-826 -940 0
-826 -946 0
-826 -952 0
-826 -958 0
-826 -964 0
-826 -970 0
-826 -976 0
-826 -982 0
-826 -988 0
-826 -994 0
-826 -1000 0
-826 -1006 0
-826 -1012 0
-826 -1018 0
-826 -1024 0
-826 -1030 0
-826 -1036 0
-826 -1042 0
-826 -1048 0
-826 -1054 0
-826 -1060 0
-826 -1066 0
-826 -1072 0
-826 -1078 0
-826 -1084 0
-826 -1090 0
-826 -1096 0
-826 -1102 0
-826 -1108 0
-826 -1114 0
-826 -1120 0
-826 -1126 0
-826 -1132 0
-826 -1138 0
-826 -1144 0
-826 -1150 0
-826 -1156 0
-826 -1162 0
-826 -1168 0
-826 -1174 0
-826 -1180 0
-826 -1186 0
-826 -1192 0
-826 -1198 0
-826 -1204 0
-826 -1210 0
-826 -1216 0
-826 -1222 0
-826 -1228 0
-826 -1234 0
-826 -1240 0
-826 -1246 0
-826 -1252 0
-826 -1258 0
-826 -1264 0
-832 -838 0
-832 -844 0
-832 -850 0
-832 -856 0
-832 -862 0
-832 -868 0
-832 -874 0
-832 -880 0
-832 -886 0
-832 -892 0
-832 -898 0
-832 -904 0
-832 -910 0
-832 -916 0
-832 -922 0
-832 -928 0
-832 -934 0
-832 -940 0
-832 -946 0
-832 -952 0
-832 -958 0
-832 -964 0
-832 -970 0
-832 -976 0
-832 -982 0
-832 -988 0
-832 -994 0
-832 -1000 0
-832 -1006 0
-832 -1012 0
-832 -1018 0
-832 -1024 0
-832 -1030 0
-832 -1036 0
-832 -1042 0
-832 -1048 0
-832 -1054 0
-832 -1060 0
-832 -1066 0
-832 -1072 0
-832 -1078 0
-832 -1084 0
-832 -1090 0
-832 -1096 0
-832 -1102 0
-832 -1108 0
-832 -1114 0
-832 -1120 0
-832 -1126 0
-832 -1132 0
-832 -1138 0
-832 -1144 0
-832 -1150 0
-832 -1156 0
-832 -1162 0
-832 -1168 0
-832 -1174 0
-832 -1180 0
-832 -1186 0
-832 -1192 0
-832 -1198 0
-832 -1204 0
-832 -1210 0
-832 -1216 0
-832 -1222 0
-832 -1228 0
-832 -1234 0
-832 -1240 0
-832 -1246 0
-832 -1252 0
-832 -1258 0
-832 -1264 0
-838 -844 0
-838 -850 0
-838 -856 0
-838 -862 0
-838 -868 0
-838 -874 0
-838 -880 0
-838 -886 0
-838 -892 0
-838 -898 0
-838 -904 0
-838 -910 0
-838 -916 0
-838 -922 0
-838 -928 0
-838 -934 0
-838 -940 0
-838 -946 0
-838 -952 0
-838 -958 0
-838 -964 0
-838 -970 0
-838 -976 0
-838 -982 0
-838 -988 0
-838 -994 0
-838 -1000 0
-838 -1006 0
-838 -1012 0
-838 -1018 0
-838 -1024 0
-838 -1030 0
-838 -1036 0
-838 -1042 0
-838 -1048 0
-838 -1054 0
-838 -1060 0
-838 -1066 0
-838 -1072 0
-838 -1078 0
-838 -1084 0
-838 -1090 0
-838 -1096 0
-838 -1102 0
-838 -1108 0
-838 -1114 0
-838 -1120 0
-838 -1126 0
-838 -1132 0
-838 -1138 0
-838 -1144 0
-838 -1150 0
-838 -1156 0
-838 -1162 0
-838 -1168 0
-838 -1174 0
-838 -1180 0
-838 -1186 0
-838 -1192 0
-838 -1198 0
-838 -1204 0
-838 -1210 0
-838 -1216 0
-838 -1222 0
-838 -1228 0
-838 -1234 0
-838 -1240 0
-838 -1246 0
-838 -1252 0
-838 -1258 0
-838 -1264 0
-844 -850 0
-844 -856 0
-844 -862 0
-844 -868 0
-844 -874 0
-844 -880 0
-844 -886 0
-844 -892 0
-844 -898 0
-844 -904 0
-844 -910 0
-844 -916 0
-844 -922 0
-844 -928 0
-844 -934 0
-844 -940 0
-844 -946 0
-844 -952 0
-844 -958 0
-844 -964 0
-844 -970 0
-844 -976 0
-844 -982 0
-844 -988 0
-844 -994 0
-844 -1000 0
-844 -1006 0
-844 -1012 0
-844 -1018 0
-844 -1024 0
-844 -1030 0
-844 -1036 0
-844 -1042 0
-844 -1048 0
-844 -1054 0
-844 -1060 0
-844 -1066 0
-844 -1072 0
-844 -1078 0
-844 -1084 0
-844 -1090 0
-844 -1096 0
-844 -1102 0
-844 -1108 0
-844 -1114 0
-844 -1120 0
-844 -1126 0
-844 -1132 0
-844 -1138 0
-844 -1144 0
-844 -1150 0
-844 -1156 0
-844 -1162 0
-844 -1168 0
-844 -1174 0
-844 -1180 0
-844 -1186 0
-844 -1192 0
-844 -1198 0
-844 -1204 0
-844 -1210 0
-844 -1216 0
-844 -1222 0
-844 -1228 0
-844 -1234 0
-844 -1240 0
-844 -1246 0
-844 -1252 0
-844 -1258 0
-844 -1264 0
-850 -856 0
-850 -862 0
-850 -868 0
-850 -874 0
-850 -880 0
-850 -886 0
-850 -892 0
-850 -898 0
-850 -904 0
-850 -910 0
-850 -916 0
-850 -922 0
-850 -928 0
-850 -934 0
-850 -940 0
-850 -946 0
-850 -952 0
-850 -958 0
-850 -964 0
-850 -970 0
-850 -976 0
-850 -982 0
-850 -988 0
-850 -994 0
-850 -1000 0
-850 -1006 0
-850 -1012 0
-850 -1018 0
-850 -1024 0
-850 -1030 0
-850 -1036 0
-850 -1042 0
-850 -1048 0
-850 -1054 0
-850 -1060 0
-850 -1066 0
-850 -1072 0
-850 -1078 0
-850 -1084 0
-850 -1090 0
-850 -1096 0
-850 -1102 0
-850 -1108 0
-850 -1114 0
-850 -1120 0
-850 -1126 0
-850 -1132 0
-850 -1138 0
-850 -1144 0
-850 -1150 0
-850 -1156 0
-850 -1162 0
-850 -1168 0
-850 -1174 0
-850 -1180 0
-850 -1186 0
-850 -1192 0
-850 -1198 0
-850 -1204 0
-850 -1210 0
-850 -1216 0
-850 -1222 0
-850 -1228 0
-850 -1234 0
-850 -1240 0
-850 -1246 0
-850 -1252 0
-850 -1258 0
-850 -1264 0
-856 -862 0
-856 -868 0
-856 -874 0
-856 -880 0
-856 -886 0
-856 -892 0
-856 -898 0
-856 -904 0
-856 -910 0
-856 -916 0
-856 -922 0
-856 -928 0
-856 -934 0
-856 -940 0
-856 -946 0
-856 -952 0
-856 -958 0
-856 -964 0
-856 -970 0
-856 -976 0
-856 -982 0
-856 -988 0
-856 -994 0
-856 -1000 0
-856 -1006 0
-856 -1012 0
-856 -1018 0
-856 -1024 0
-856 -1030 0
-856 -1036 0
-856 -1042 0
-856 -1048 0
-856 -1054 0
-856 -1060 0
-856 -1066 0
-856 -1072 0
-856 -1078 0
-856 -1084 0
-856 -1090 0
-856 -1096 0
-856 -1102 0
-856 -1108 0
-856 -1114 0
-856 -1120 0
-856 -1126 0
-856 -1132 0
-856 -1138 0
-856 -1144 0
-856 -1150 0
-856 -1156 0
-856 -1162 0
-856 -1168 0
-856 -1174 0
-856 -1180 0
-856 -1186 0
-856 -1192 0
-856 -1198 0
-856 -1204 0
-856 -1210 0
-856 -1216 0
-856 -1222 0
-856 -1228 0
-856 -1234 0
-856 -1240 0
-856 -1246 0
-856 -1252 0
-856 -1258 0
-856 -1264 0
-862 -868 0
-862 -874 0
-862 -880 0
-862 -886 0
-862 -892 0
-862 -898 0
-862 -904 0
-862 -910 0
-862 -916 0
-862 -922 0
-862 -928 0
-862 -934 0
-862 -940 0
-862 -946 0
-862 -952 0
-862 -958 0
-862 -964 0
-862 -970 0
-862 -976 0
-862 -982 0
-862 -988 0
-862 -994 0
-862 -1000 0
-862 -1006 0
-862 -1012 0
-862 -1018 0
-862 -1024 0
-862 -1030 0
-862 -1036 0
-862 -1042 0
-862 -1048 0
-862 -1054 0
-862 -1060 0
-862 -1066 0
-862 -1072 0
-862 -1078 0
-862 -1084 0
-862 -1090 0
-862 -1096 0
-862 -1102 0
-862 -1108 0
-862 -1114 0
-862 -1120 0
-862 -1126 0
-862 -1132 0
-862 -1138 0
-862 -1144 0
-862 -1150 0
-862 -1156 0
-862 -1162 0
-862 -1168 0
-862 -1174 0
-862 -1180 0
-862 -1186 0
-862 -1192 0
-862 -1198 0
-862 -1204 0
-862 -1210 0
-862 -1216 0
-862 -1222 0
-862 -1228 0
-862 -1234 0
-862 -1240 0
-862 -1246 0
-862 -1252 0
-862 -1258 0
-862 -1264 0
-868 -874 0
-868 -880 0
-868 -886 0
-868 -892 0
-868 -898 0
-868 -904 0
-868 -910 0
-868 -916 0
-868 -922 0
-868 -928 0
-868 -934 0
-868 -940 0
-868 -946 0
-868 -952 0
-868 -958 0
-868 -964 0
-868 -970 0
-868 -976 0
-868 -982 0
-868 -988 0
-868 -994 0
-868 -1000 0
-868 -1006 0
-868 -1012 0
-868 -1018 0
-868 -1024 0
-868 -1030 0
-868 -1036 0
-868 -1042 0
-868 -1048 0
-868 -1054 0
-868 -1060 0
-868 -1066 0
-868 -1072 0
-868 -1078 0
-868 -1084 0
-868 -1090 0
-868 -1096 0
-868 -1102 0
-868 -1108 0
-868 -1114 0
-868 -1120 0
-868 -1126 0
-868 -1132 0
-868 -1138 0
-868 -1144 0
-868 -1150 0
-868 -1156 0
-868 -1162 0
-868 -1168 0
-868 -1174 0
-868 -1180 0
-868 -1186 0
-868 -1192 0
-868 -1198 0
-868 -1204 0
-868 -1210 0
-868 -1216 0
-868 -1222 0
-868 -1228 0
-868 -1234 0
-868 -1240 0
-868 -1246 0
-868 -1252 0
-868 -1258 0
-868 -1264 0
-874 -880 0
-874 -886 0
-874 -892 0
-874 -898 0
-874 -904 0
-874 -910 0
-874 -916 0
-874 -922 0
-874 -928 0
-874 -934 0
-874 -940 0
-874 -946 0
-874 -952 0
-874 -958 0
-874 -964 0
-874 -970 0
-874 -976 0
-874 -982 0
-874 -988 0
-874 -994 0
-874 -1000 0
-874 -1006 0
-874 -1012 0
-874 -1018 0
-874 -1024 0
-874 -1030 0
-874 -1036 0
-874 -1042 0
-874 -1048 0
-874 -1054 0
-874 -1060 0
-874 -1066 0
-874 -1072 0
-874 -1078 0
-874 -1084 0
-874 -1090 0
-874 -1096 0
-874 -1102 0
-874 -1108 0
-874 -1114 0
-874 -1120 0
-874 -1126 0
-874 -1132 0
-874 -1138 0
-874 -1144 0
-874 -1150 0
-874 -1156 0
-874 -1162 0
-874 -1168 0
-874 -1174 0
-874 -1180 0
-874 -1186 0
-874 -1192 0
-874 -1198 0
-874 -1204 0
-874 -1210 0
-874 -1216 0
-874 -1222 0
-874 -1228 0
-874 -1234 0
-874 -1240 0
-874 -1246 0
-874 -1252 0
-874 -1258 0
-874 -1264 0
-880 -886 0
-880 -892 0
-880 -898 0
-880 -904 0
-880 -910 0
-880 -916 0
-880 -922 0
-880 -928 0
-880 -934 0
-880 -940 0
-880 -946 0
-880 -952 0
-880 -958 0
-880 -964 0
-880 -970 0
-880 -976 0
-880 -982 0
-880 -988 0
-880 -994 0
-880 -1000 0
-880 -1006 0
-880 -1012 0
-880 -1018 0
-880 -1024 0
-880 -1030 0
-880 -1036 0
-880 -1042 0
-880 -1048 0
-880 -1054 0
-880 -1060 0
-880 -1066 0
-880 -1072 0
-880 -1078 0
-880 -1084 0
-880 -1090 0
-880 -1096 0
-880 -1102 0
-880 -1108 0
-880 -1114 0
-880 -1120 0
-880 -1126 0
-880 -1132 0
-880 -1138 0
-880 -1144 0
-880 -1150 0
-880 -1156 0
-880 -1162 0
-880 -1168 0
-880 -1174 0
-880 -1180 0
-880 -1186 0
-880 -1192 0
-880 -1198 0
-880 -1204 0
-880 -1210 0
-880 -1216 0
-880 -1222 0
-880 -1228 0
-880 -1234 0
-880 -1240 0
-880 -1246 0
-880 -1252 0
-880 -1258 0
-880 -1264 0
-886 -892 0
-886 -898 0
-886 -904 0
-886 -910 0
-886 -916 0
-886 -922 0
-886 -928 0
-886 -934 0
-886 -940 0
-886 -946 0
-886 -952 0
-886 -958 0
-886 -964 0
-886 -970 0
-886 -976 0
-886 -982 0
-886 -988 0
-886 -994 0
-886 -1000 0
-886 -1006 0
-886 -1012 0
-886 -1018 0
-886 -1024 0
-886 -1030 0
-886 -1036 0
-886 -1042 0
-886 -1048 0
-886 -1054 0
-886 -1060 0
-886 -1066 0
-886 -1072 0
-886 -1078 0
-886 -1084 0
-886 -1090 0
-886 -1096 0
-886 -1102 0
-886 -1108 0
-886 -1114 0
-886 -1120 0
-886 -1126 0
-886 -1132 0
-886 -1138 0
-886 -1144 0
-886 -1150 0
-886 -1156 0
-886 -1162 0
-886 -1168 0
-886 -1174 0
-886 -1180 0
-886 -1186 0
-886 -1192 0
-886 -1198 0
-886 -1204 0
-886 -1210 0
-886 -1216 0
-886 -1222 0
-886 -1228 0
-886 -1234 0
-886 -1240 0
-886 -1246 0
-886 -1252 0
-886 -1258 0
-886 -1264 0
-892 -898 0
-892 -904 0
-892 -910 0
-892 -916 0
-892 -922 0
-892 -928 0
-892 -934 0
-892 -940 0
-892 -946 0
-892 -952 0
-892 -958 0
-892 -964 0
-892 -970 0
-892 -976 0
-892 -982 0
-892 -988 0
-892 -994 0
-892 -1000 0
-892 -1006 0
-892 -1012 0
-892 -1018 0
-892 -1024 0
-892 -1030 0
-892 -1036 0
-892 -1042 0
-892 -1048 0
-892 -1054 0
-892 -1060 0
-892 -1066 0
-892 -1072 0
-892 -1078 0
-892 -1084 0
-892 -1090 0
-892 -1096 0
-892 -1102 0
-892 -1108 0
-892 -1114 0
-892 -1120 0
-892 -1126 0
-892 -1132 0
-892 -1138 0
-892 -1144 0
-892 -1150 0
-892 -1156 0
-892 -1162 0
-892 -1168 0
-892 -1174 0
-892 -1180 0
-892 -1186 0
-892 -1192 0
-892 -1198 0
-892 -1204 0
-892 -1210 0
-892 -1216 0
-892 -1222 0
-892 -1228 0
-892 -1234 0
-892 -1240 0
-892 -1246 0
-892 -1252 0
-892 -1258 0
-892 -1264 0
-898 -904 0
-898 -910 0
-898 -916 0
-898 -922 0
-898 -928 0
-898 -934 0
-898 -940 0
-898 -946 0
-898 -952 0
-898 -958 0
-898 -964 0
-898 -970 0
-898 -976 0
-898 -982 0
-898 -988 0
-898 -994 0
-898 -1000 0
-898 -1006 0
-898 -1012 0
-898 -1018 0
-898 -1024 0
-898 -1030 0
-898 -1036 0
-898 -1042 0
-898 -1048 0
-898 -1054 0
-898 -1060 0
-898 -1066 0
-898 -1072 0
-898 -1078 0
-898 -1084 0
-898 -1090 0
-898 -1096 0
-898 -1102 0
-898 -1108 0
-898 -1114 0
-898 -1120 0
-898 -1126 0
-898 -1132 0
-898 -1138 0
-898 -1144 0
-898 -1150 0
-898 -1156 0
-898 -1162 0
-898 -1168 0
-898 -1174 0
-898 -1180 0
-898 -1186 0
-898 -1192 0
-898 -1198 0
-898 -1204 0
-898 -1210 0
-898 -1216 0
-898 -1222 0
-898 -1228 0
-898 -1234 0
-898 -1240 0
-898 -1246 0
-898 -1252 0
-898 -1258 0
-898 -1264 0
-904 -910 0
-904 -916 0
-904 -922 0
-904 -928 0
-904 -934 0
-904 -940 0
-904 -946 0
-904 -952 0
-904 -958 0
-904 -964 0
-904 -970 0
-904 -976 0
-904 -982 0
-904 -988 0
-904 -994 0
-904 -1000 0
-904 -1006 0
-904 -1012 0
-904 -1018 0
-904 -1024 0
-904 -1030 0
-904 -1036 0
-904 -1042 0
-904 -1048 0
-904 -1054 0
-904 -1060 0
-904 -1066 0
-904 -1072 0
-904 -1078 0
-904 -1084 0
-904 -1090 0
-904 -1096 0
-904 -1102 0
-904 -1108 0
-904 -1114 0
-904 -1120 0
-904 -1126 0
-904 -1132 0
-904 -1138 0
-904 -1144 0
-904 -1150 0
-904 -1156 0
-904 -1162 0
-904 -1168 0
-904 -1174 0
-904 -1180 0
-904 -1186 0
-904 -1192 0
-904 -1198 0
-904 -1204 0
-904 -1210 0
-904 -1216 0
-904 -1222 0
-904 -1228 0
-904 -1234 0
-904 -1240 0
-904 -1246 0
-904 -1252 0
-904 -1258 0
-904 -1264 0
-910 -916 0
-910 -922 0
-910 -928 0
-910 -934 0
-910 -940 0
-910 -946 0
-910 -952 0
-910 -958 0
-910 -964 0
-910 -970 0
-910 -976 0
-910 -982 0
-910 -988 0
-910 -994 0
-910 -1000 0
-910 -1006 0
-910 -1012 0
-910 -1018 0
-910 -1024 0
-910 -1030 0
-910 -1036 0
-910 -1042 0
-910 -1048 0
-910 -1054 0
-910 -1060 0
-910 -1066 0
-910 -1072 0
-910 -1078 0
-910 -1084 0
-910 -1090 0
-910 -1096 0
-910 -1102 0
-910 -1108 0
-910 -1114 0
-910 -1120 0
-910 -1126 0
-910 -1132 0
-910 -1138 0
-910 -1144 0
-910 -1150 0
-910 -1156 0
-910 -1162 0
-910 -1168 0
-910 -1174 0
-910 -1180 0
-910 -1186 0
-910 -1192 0
-910 -1198 0
-910 -1204 0
-910 -1210 0
-910 -1216 0
-910 -1222 0
-910 -1228 0
-910 -1234 0
-910 -1240 0
-910 -1246 0
-910 -1252 0
-910 -1258 0
-910 -1264 0
-916 -922 0
-916 -928 0
-916 -934 0
-916 -940 0
-916 -946 0
-916 -952 0
-916 -958 0
-916 -964 0
-916 -970 0
-916 -976 0
-916 -982 0
-916 -988 0
-916 -994 0
-916 -1000 0
-916 -1006 0
-916 -1012 0
-916 -1018 0
-916 -1024 0
-916 -1030 0
-916 -1036 0
-916 -1042 0
-916 -1048 0
-916 -1054 0
-916 -1060 0
-916 -1066 0
-916 -1072 0
-916 -1078 0
-916 -1084 0
-916 -1090 0
-916 -1096 0
-916 -1102 0
-916 -1108 0
-916 -1114 0
-916 -1120 0
-916 -1126 0
-916 -1132 0
-916 -1138 0
-916 -1144 0
-916 -1150 0
-916 -1156 0
-916 -1162 0
-916 -1168 0
-916 -1174 0
-916 -1180 0
-916 -1186 0
-916 -1192 0
-916 -1198 0
-916 -1204 0
-916 -1210 0
-916 -1216 0
-916 -1222 0
-916 -1228 0
-916 -1234 0
-916 -1240 0
-916 -1246 0
-916 -1252 0
-916 -1258 0
-916 -1264 0
-922 -928 0
-922 -934 0
-922 -940 0
-922 -946 0
-922 -952 0
-922 -958 0
-922 -964 0
-922 -970 0
-922 -976 0
-922 -982 0
-922 -988 0
-922 -994 0
-922 -1000 0
-922 -1006 0
-922 -1012 0
-922 -1018 0
-922 -1024 0
-922 -1030 0
-922 -1036 0
-922 -1042 0
-922 -1048 0
-922 -1054 0
-922 -1060 0
-922 -1066 0
-922 -1072 0
-922 -1078 0
-922 -1084 0
-922 -1090 0
-922 -1096 0
-922 -1102 0
-922 -1108 0
-922 -1114 0
-922 -1120 0
-922 -1126 0
-922 -1132 0
-922 -1138 0
-922 -1144 0
-922 -1150 0
-922 -1156 0
-922 -1162 0
-922 -1168 0
-922 -1174 0
-922 -1180 0
-922 -1186 0
-922 -1192 0
-922 -1198 0
-922 -1204 0
-922 -1210 0
-922 -1216 0
-922 -1222 0
-922 -1228 0
-922 -1234 0
-922 -1240 0
-922 -1246 0
-922 -1252 0
-922 -1258 0
-922 -1264 0
-928 -934 0
-928 -940 0
-928 -946 0
-928 -952 0
-928 -958 0
-928 -964 0
-928 -970 0
-928 -976 0
-928 -982 0
-928 -988 0
-928 -994 0
-928 -1000 0
-928 -1006 0
-928 -1012 0
-928 -1018 0
-928 -1024 0
-928 -1030 0
-928 -1036 0
-928 -1042 0
-928 -1048 0
-928 -1054 0
-928 -1060 0
-928 -1066 0
-928 -1072 0
-928 -1078 0
-928 -1084 0
-928 -1090 0
-928 -1096 0
-928 -1102 0
-928 -1108 0
-928 -1114 0
-928 -1120 0
-928 -1126 0
-928 -1132 0
-928 -1138 0
-928 -1144 0
-928 -1150 0
-928 -1156 0
-928 -1162 0
-928 -1168 0
-928 -1174 0
-928 -1180 0
-928 -1186 0
-928 -1192 0
-928 -1198 0
-928 -1204 0
-928 -1210 0
-928 -1216 0
-928 -1222 0
-928 -1228 0
-928 -1234 0
-928 -1240 0
-928 -1246 0
-928 -1252 0
-928 -1258 0
-928 -1264 0
-934 -940 0
-934 -946 0
-934 -952 0
-934 -958 0
-934 -964 0
-934 -970 0
-934 -976 0
-934 -982 0
-934 -988 0
-934 -994 0
-934 -1000 0
-934 -1006 0
-934 -1012 0
-934 -1018 0
-934 -1024 0
-934 -1030 0
-934 -1036 0
-934 -1042 0
-934 -1048 0
-934 -1054 0
-934 -1060 0
-934 -1066 0
-934 -1072 0
-934 -1078 0
-934 -1084 0
-934 -1090 0
-934 -1096 0
-934 -1102 0
-934 -1108 0
-934 -1114 0
-934 -1120 0
-934 -1126 0
-934 -1132 0
-934 -1138 0
-934 -1144 0
-934 -1150 0
-934 -1156 0
-934 -1162 0
-934 -1168 0
-934 -1174 0
-934 -1180 0
-934 -1186 0
-934 -1192 0
-934 -1198 0
-934 -1204 0
-934 -1210 0
-934 -1216 0
-934 -1222 0
-934 -1228 0
-934 -1234 0
-934 -1240 0
-934 -1246 0
-934 -1252 0
-934 -1258 0
-934 -1264 0
-940 -946 0
-940 -952 0
-940 -958 0
-940 -964 0
-940 -970 0
-940 -976 0
-940 -982 0
-940 -988 0
-940 -994 0
-940 -1000 0
-940 -1006 0
-940 -1012 0
-940 -1018 0
-940 -1024 0
-940 -1030 0
-940 -1036 0
-940 -1042 0
-940 -1048 0
-940 -1054 0
-940 -1060 0
-940 -1066 0
-940 -1072 0
-940 -1078 0
-940 -1084 0
-940 -1090 0
-940 -1096 0
-940 -1102 0
-940 -1108 0
-940 -1114 0
-940 -1120 0
-940 -1126 0
-940 -1132 0
-940 -1138 0
-940 -1144 0
-940 -1150 0
-940 -1156 0
-940 -1162 0
-940 -1168 0
-940 -1174 0
-940 -1180 0
-940 -1186 0
-940 -1192 0
-940 -1198 0
-940 -1204 0
-940 -1210 0
-940 -1216 0
-940 -1222 0
-940 -1228 0
-940 -1234 0
-940 -1240 0
-940 -1246 0
-940 -1252 0
-940 -1258 0
-940 -1264 0
-946 -952 0
-946 -958 0
-946 -964 0
-946 -970 0
-946 -976 0
-946 -982 0
-946 -988 0
-946 -994 0
-946 -1000 0
-946 -1006 0
-946 -1012 0
-946 -1018 0
-946 -1024 0
-946 -1030 0
-946 -1036 0
-946 -1042 0
-946 -1048 0
-946 -1054 0
-946 -1060 0
-946 -1066 0
-946 -1072 0
-946 -1078 0
-946 -1084 0
-946 -1090 0
-946 -1096 0
-946 -1102 0
-946 -1108 0
-946 -1114 0
-946 -1120 0
-946 -1126 0
-946 -1132 0
-946 -1138 0
-946 -1144 0
-946 -1150 0
-946 -1156 0
-946 -1162 0
-946 -1168 0
-946 -1174 0
-946 -1180 0
-946 -1186 0
-946 -1192 0
-946 -1198 0
-946 -1204 0
-946 -1210 0
-946 -1216 0
-946 -1222 0
-946 -1228 0
-946 -1234 0
-946 -1240 0
-946 -1246 0
-946 -1252 0
-946 -1258 0
-946 -1264 0
-952 -958 0
-952 -964 0
-952 -970 0
-952 -976 0
-952 -982 0
-952 -988 0
-952 -994 0
-952 -1000 0
-952 -1006 0
-952 -1012 0
-952 -1018 0
-952 -1024 0
-952 -1030 0
-952 -1036 0
-952 -1042 0
-952 -1048 0
-952 -1054 0
-952 -1060 0
-952 -1066 0
-952 -1072 0
-952 -1078 0
-952 -1084 0
-952 -1090 0
-952 -1096 0
-952 -1102 0
-952 -1108 0
-952 -1114 0
-952 -1120 0
-952 -1126 0
-952 -1132 0
-952 -1138 0
-952 -1144 0
-952 -1150 0
-952 -1156 0
-952 -1162 0
-952 -1168 0
-952 -1174 0
-952 -1180 0
-952 -1186 0
-952 -1192 0
-952 -1198 0
-952 -1204 0
-952 -1210 0
-952 -1216 0
-952 -1222 0
-952 -1228 0
-952 -1234 0
-952 -1240 0
-952 -1246 0
-952 -1252 0
-952 -1258 0
-952 -1264 0
-958 -964 0
-958 -970 0
-958 -976 0
-958 -982 0
-958 -988 0
-958 -994 0
-958 -1000 0
-958 -1006 0
-958 -1012 0
-958 -1018 0
-958 -1024 0
-958 -1030 0
-958 -1036 0
-958 -1042 0
-958 -1048 0
-958 -1054 0
-958 -1060 0
-958 -1066 0
-958 -1072 0
-958 -1078 0
-958 -1084 0
-958 -1090 0
-958 -1096 0
-958 -1102 0
-958 -1108 0
-958 -1114 0
-958 -1120 0
-958 -1126 0
-958 -1132 0
-958 -1138 0
-958 -1144 0
-958 -1150 0
-958 -1156 0
-958 -1162 0
-958 -1168 0
-958 -1174 0
-958 -1180 0
-958 -1186 0
-958 -1192 0
-958 -1198 0
-958 -1204 0
-958 -1210 0
-958 -1216 0
-958 -1222 0
-958 -1228 0
-958 -1234 0
-958 -1240 0
-958 -1246 0
-958 -1252 0
-958 -1258 0
-958 -1264 0
-964 -970 0
-964 -976 0
-964 -982 0
-964 -988 0
-964 -994 0
-964 -1000 0
-964 -1006 0
-964 -1012 0
-964 -1018 0
-964 -1024 0
-964 -1030 0
-964 -1036 0
-964 -1042 0
-964 -1048 0
-964 -1054 0
-964 -1060 0
-964 -1066 0
-964 -1072 0
-964 -1078 0
-964 -1084 0
-964 -1090 0
-964 -1096 0
-964 -1102 0
-964 -1108 0
-964 -1114 0
-964 -1120 0
-964 -1126 0
-964 -1132 0
-964 -1138 0
-964 -1144 0
-964 -1150 0
-964 -1156 0
-964 -1162 0
-964 -1168 0
-964 -1174 0
-964 -1180 0
-964 -1186 0
-964 -1192 0
-964 -1198 0
-964 -1204 0
-964 -1210 0
-964 -1216 0
-964 -1222 0
-964 -1228 0
-964 -1234 0
-964 -1240 0
-964 -1246 0
-964 -1252 0
-964 -1258 0
-964 -1264 0
-970 -976 0
-970 -982 0
-970 -988 0
-970 -994 0
-970 -1000 0
-970 -1006 0
-970 -1012 0
-970 -1018 0
-970 -1024 0
-970 -1030 0
-970 -1036 0
-970 -1042 0
-970 -1048 0
-970 -1054 0
-970 -1060 0
-970 -1066 0
-970 -1072 0
-970 -1078 0
-970 -1084 0
-970 -1090 0
-970 -1096 0
-970 -1102 0
-970 -1108 0
-970 -1114 0
-970 -1120 0
-970 -1126 0
-970 -1132 0
-970 -1138 0
-970 -1144 0
-970 -1150 0
-970 -1156 0
-970 -1162 0
-970 -1168 0
-970 -1174 0
-970 -1180 0
-970 -1186 0
-970 -1192 0
-970 -1198 0
-970 -1204 0
-970 -1210 0
-970 -1216 0
-970 -1222 0
-970 -1228 0
-970 -1234 0
-970 -1240 0
-970 -1246 0
-970 -1252 0
-970 -1258 0
-970 -1264 0
-976 -982 0
-976 -988 0
-976 -994 0
-976 -1000 0
-976 -1006 0
-976 -1012 0
-976 -1018 0
-976 -1024 0
-976 -1030 0
-976 -1036 0
-976 -1042 0
-976 -1048 0
-976 -1054 0
-976 -1060 0
-976 -1066 0
-976 -1072 0
-976 -1078 0
-976 -1084 0
-976 -1090 0
-976 -1096 0
-976 -1102 0
-976 -1108 0
-976 -1114 0
-976 -1120 0
-976 -1126 0
-976 -1132 0
-976 -1138 0
-976 -1144 0
-976 -1150 0
-976 -1156 0
-976 -1162 0
-976 -1168 0
-976 -1174 0
-976 -1180 0
-976 -1186 0
-976 -1192 0
-976 -1198 0
-976 -1204 0
-976 -1210 0
-976 -1216 0
-976 -1222 0
-976 -1228 0
-976 -1234 0
-976 -1240 0
-976 -1246 0
-976 -1252 0
-976 -1258 0
-976 -1264 0
-982 -988 0
-982 -994 0
-982 -1000 0
-982 -1006 0
-982 -1012 0
-982 -1018 0
-982 -1024 0
-982 -1030 0
-982 -1036 0
-982 -1042 0
-982 -1048 0
-982 -1054 0
-982 -1060 0
-982 -1066 0
-982 -1072 0
-982 -1078 0
-982 -1084 0
-982 -1090 0
-982 -1096 0
-982 -1102 0
-982 -1108 0
-982 -1114 0
-982 -1120 0
-982 -1126 0
-982 -1132 0
-982 -1138 0
-982 -1144 0
-982 -1150 0
-982 -1156 0
-982 -1162 0
-982 -1168 0
-982 -1174 0
-982 -1180 0
-982 -1186 0
-982 -1192 0
-982 -1198 0
-982 -1204 0
-982 -1210 0
-982 -1216 0
-982 -1222 0
-982 -1228 0
-982 -1234 0
-982 -1240 0
-982 -1246 0
-982 -1252 0
-982 -1258 0
-982 -1264 0
-988 -994 0
-988 -1000 0
-988 -1006 0
-988 -1012 0
-988 -1018 0
-988 -1024 0
-988 -1030 0
-988 -1036 0
-988 -1042 0
-988 -1048 0
-988 -1054 0
-988 -1060 0
-988 -1066 0
-988 -1072 0
-988 -1078 0
-988 -1084 0
-988 -1090 0
-988 -1096 0
-988 -1102 0
-988 -1108 0
-988 -1114 0
-988 -1120 0
-988 -1126 0
-988 -1132 0
-988 -1138 0
-988 -1144 0
-988 -1150 0
-988 -1156 0
-988 -1162 0
-988 -1168 0
-988 -1174 0
-988 -1180 0
-988 -1186 0
-988 -1192 0
-988 -1198 0
-988 -1204 0
-988 -1210 0
-988 -1216 0
-988 -1222 0
-988 -1228 0
-988 -1234 0
-988 -1240 0
-988 -1246 0
-988 -1252 0
-988 -1258 0
-988 -1264 0
-994 -1000 0
-994 -1006 0
-994 -1012 0
-994 -1018 0
-994 -1024 0
-994 -1030 0
-994 -1036 0
-994 -1042 0
-994 -1048 0
-994 -1054 0
-994 -1060 0
-994 -1066 0
-994 -1072 0
-994 -1078 0
-994 -1084 0
-994 -1090 0
-994 -1096 0
-994 -1102 0
-994 -1108 0
-994 -1114 0
-994 -1120 0
-994 -1126 0
-994 -1132 0
-994 -1138 0
-994 -1144 0
-994 -1150 0
-994 -1156 0
-994 -1162 0
-994 -1168 0
-994 -1174 0
-994 -1180 0
-994 -1186 0
-994 -1192 0
-994 -1198 0
-994 -1204 0
-994 -1210 0
-994 -1216 0
-994 -1222 0
-994 -1228 0
-994 -1234 0
-994 -1240 0
-994 -1246 0
-994 -1252 0
-994 -1258 0
-994 -1264 0
-1000 -1006 0
-1000 -1012 0
-1000 -1018 0
-1000 -1024 0
-1000 -1030 0
-1000 -1036 0
-1000 -1042 0
-1000 -1048 0
-1000 -1054 0
-1000 -1060 0
-1000 -1066 0
-1000 -1072 0
-1000 -1078 0
-1000 -1084 0
-1000 -1090 0
-1000 -1096 0
-1000 -1102 0
-1000 -1108 0
-1000 -1114 0
-1000 -1120 0
-1000 -1126 0
-1000 -1132 0
-1000 -1138 0
-1000 -1144 0
-1000 -1150 0
-1000 -1156 0
-1000 -1162 0
-1000 -1168 0
-1000 -1174 0
-1000 -1180 0
-1000 -1186 0
-1000 -1192 0
-1000 -1198 0
-1000 -1204 0
-1000 -1210 0
-1000 -1216 0
-1000 -1222 0
-1000 -1228 0
-1000 -1234 0
-1000 -1240 0
-1000 -1246 0
-1000 -1252 0
-1000 -1258 0
-1000 -1264 0
-1006 -1012 0
-1006 -1018 0
-1006 -1024 0
-1006 -1030 0
-1006 -1036 0
-1006 -1042 0
-1006 -1048 0
-1006 -1054 0
-1006 -1060 0
-1006 -1066 0
-1006 -1072 0
-1006 -1078 0
-1006 -1084 0
-1006 -1090 0
-1006 -1096 0
-1006 -1102 0
-1006 -1108 0
-1006 -1114 0
-1006 -1120 0
-1006 -1126 0
-1006 -1132 0
-1006 -1138 0
-1006 -1144 0
-1006 -1150 0
-1006 -1156 0
-1006 -1162 0
-1006 -1168 0
-1006 -1174 0
-1006 -1180 0
-1006 -1186 0
-1006 -1192 0
-1006 -1198 0
-1006 -1204 0
-1006 -1210 0
-1006 -1216 0
-1006 -1222 0
-1006 -1228 0
-1006 -1234 0
-1006 -1240 0
-1006 -1246 0
-1006 -1252 0
-1006 -1258 0
-1006 -1264 0
-1012 -1018 0
-1012 -1024 0
-1012 -1030 0
-1012 -1036 0
-1012 -1042 0
-1012 -1048 0
-1012 -1054 0
-1012 -1060 0
-1012 -1066 0
-1012 -1072 0
-1012 -1078 0
-1012 -1084 0
-1012 -1090 0
-1012 -1096 0
-1012 -1102 0
-1012 -1108 0
-1012 -1114 0
-1012 -1120 0
-1012 -1126 0
-1012 -1132 0
-1012 -1138 0
-1012 -1144 0
-1012 -1150 0
-1012 -1156 0
-1012 -1162 0
-1012 -1168 0
-1012 -1174 0
-1012 -1180 0
-1012 -1186 0
-1012 -1192 0
-1012 -1198 0
-1012 -1204 0
-1012 -1210 0
-1012 -1216 0
-1012 -1222 0
-1012 -1228 0
-1012 -1234 0
-1012 -1240 0
-1012 -1246 0
-1012 -1252 0
-1012 -1258 0
-1012 -1264 0
-1018 -1024 0
-1018 -1030 0
-1018 -1036 0
-1018 -1042 0
-1018 -1048 0
-1018 -1054 0
-1018 -1060 0
-1018 -1066 0
-1018 -1072 0
-1018 -1078 0
-1018 -1084 0
-1018 -1090 0
-1018 -1096 0
-1018 -1102 0
-1018 -1108 0
-1018 -1114 0
-1018 -1120 0
-1018 -1126 0
-1018 -1132 0
-1018 -1138 0
-1018 -1144 0
-1018 -1150 0
-1018 -1156 0
-1018 -1162 0
-1018 -1168 0
-1018 -1174 0
-1018 -1180 0
-1018 -1186 0
-1018 -1192 0
-1018 -1198 0
-1018 -1204 0
-1018 -1210 0
-1018 -1216 0
-1018 -1222 0
-1018 -1228 0
-1018 -1234 0
-1018 -1240 0
-1018 -1246 0
-1018 -1252 0
-1018 -1258 0
-1018 -1264 0
-1024 -1030 0
-1024 -1036 0
-1024 -1042 0
-1024 -1048 0
-1024 -1054 0
-1024 -1060 0
-1024 -1066 0
-1024 -1072 0
-1024 -1078 0
-1024 -1084 0
-1024 -1090 0
-1024 -1096 0
-1024 -1102 0
-1024 -1108 0
-1024 -1114 0
-1024 -1120 0
-1024 -1126 0
-1024 -1132 0
-1024 -1138 0
-1024 -1144 0
-1024 -1150 0
-1024 -1156 0
-1024 -1162 0
-1024 -1168 0
-1024 -1174 0
-1024 -1180 0
-1024 -1186 0
-1024 -1192 0
-1024 -1198 0
-1024 -1204 0
-1024 -1210 0
-1024 -1216 0
-1024 -1222 0
-1024 -1228 0
-1024 -1234 0
-1024 -1240 0
-1024 -1246 0
-1024 -1252 0
-1024 -1258 0
-1024 -1264 0
-1030 -1036 0
-1030 -1042 0
-1030 -1048 0
-1030 -1054 0
-1030 -1060 0
-1030 -1066 0
-1030 -1072 0
-1030 -1078 0
-1030 -1084 0
-1030 -1090 0
-1030 -1096 0
-1030 -1102 0
-1030 -1108 0
-1030 -1114 0
-1030 -1120 0
-1030 -1126 0
-1030 -1132 0
-1030 -1138 0
-1030 -1144 0
-1030 -1150 0
-1030 -1156 0
-1030 -1162 0
-1030 -1168 0
-1030 -1174 0
-1030 -1180 0
-1030 -1186 0
-1030 -1192 0
-1030 -1198 0
-1030 -1204 0
-1030 -1210 0
-1030 -1216 0
-1030 -1222 0
-1030 -1228 0
-1030 -1234 0
-1030 -1240 0
-1030 -1246 0
-1030 -1252 0
-1030 -1258 0
-1030 -1264 0
-1036 -1042 0
-1036 -1048 0
-1036 -1054 0
-1036 -1060 0
-1036 -1066 0
-1036 -1072 0
-1036 -1078 0
-1036 -1084 0
-1036 -1090 0
-1036 -1096 0
-1036 -1102 0
-1036 -1108 0
-1036 -1114 0
-1036 -1120 0
-1036 -1126 0
-1036 -1132 0
-1036 -1138 0
-1036 -1144 0
-1036 -1150 0
-1036 -1156 0
-1036 -1162 0
-1036 -1168 0
-1036 -1174 0
-1036 -1180 0
-1036 -1186 0
-1036 -1192 0
-1036 -1198 0
-1036 -1204 0
-1036 -1210 0
-1036 -1216 0
-1036 -1222 0
-1036 -1228 0
-1036 -1234 0
-1036 -1240 0
-1036 -1246 0
-1036 -1252 0
-1036 -1258 0
-1036 -1264 0
-1042 -1048 0
-1042 -1054 0
-1042 -1060 0
-1042 -1066 0
-1042 -1072 0
-1042 -1078 0
-1042 -1084 0
-1042 -1090 0
-1042 -1096 0
-1042 -1102 0
-1042 -1108 0
-1042 -1114 0
-1042 -1120 0
-1042 -1126 0
-1042 -1132 0
-1042 -1138 0
-1042 -1144 0
-1042 -1150 0
-1042 -1156 0
-1042 -1162 0
-1042 -1168 0
-1042 -1174 0
-1042 -1180 0
-1042 -1186 0
-1042 -1192 0
-1042 -1198 0
-1042 -1204 0
-1042 -1210 0
-1042 -1216 0
-1042 -1222 0
-1042 -1228 0
-1042 -1234 0
-1042 -1240 0
-1042 -1246 0
-1042 -1252 0
-1042 -1258 0
-1042 -1264 0
-1048 -1054 0
-1048 -1060 0
-1048 -1066 0
-1048 -1072 0
-1048 -1078 0
-1048 -1084 0
-1048 -1090 0
-1048 -1096 0
-1048 -1102 0
-1048 -1108 0
-1048 -1114 0
-1048 -1120 0
-1048 -1126 0
-1048 -1132 0
-1048 -1138 0
-1048 -1144 0
-1048 -1150 0
-1048 -1156 0
-1048 -1162 0
-1048 -1168 0
-1048 -1174 0
-1048 -1180 0
-1048 -1186 0
-1048 -1192 0
-1048 -1198 0
-1048 -1204 0
-1048 -1210 0
-1048 -1216 0
-1048 -1222 0
-1048 -1228 0
-1048 -1234 0
-1048 -1240 0
-1048 -1246 0
-1048 -1252 0
-1048 -1258 0
-1048 -1264 0
-1054 -1060 0
-1054 -1066 0
-1054 -1072 0
-1054 -1078 0
-1054 -1084 0
-1054 -1090 0
-1054 -1096 0
-1054 -1102 0
-1054 -1108 0
-1054 -1114 0
-1054 -1120 0
-1054 -1126 0
-1054 -1132 0
-1054 -1138 0
-1054 -1144 0
-1054 -1150 0
-1054 -1156 0
-1054 -1162 0
-1054 -1168 0
-1054 -1174 0
-1054 -1180 0
-1054 -1186 0
-1054 -1192 0
-1054 -1198 0
-1054 -1204 0
-1054 -1210 0
-1054 -1216 0
-1054 -1222 0
-1054 -1228 0
-1054 -1234 0
-1054 -1240 0
-1054 -1246 0
-1054 -1252 0
-1054 -1258 0
-1054 -1264 0
-1060 -1066 0
-1060 -1072 0
-1060 -1078 0
-1060 -1084 0
-1060 -1090 0
-1060 -1096 0
-1060 -1102 0
-1060 -1108 0
-1060 -1114 0
-1060 -1120 0
-1060 -1126 0
-1060 -1132 0
-1060 -1138 0
-1060 -1144 0
-1060 -1150 0
-1060 -1156 0
-1060 -1162 0
-1060 -1168 0
-1060 -1174 0
-1060 -1180 0
-1060 -1186 0
-1060 -1192 0
-1060 -1198 0
-1060 -1204 0
-1060 -1210 0
-1060 -1216 0
-1060 -1222 0
-1060 -1228 0
-1060 -1234 0
-1060 -1240 0
-1060 -1246 0
-1060 -1252 0
-1060 -1258 0
-1060 -1264 0
-1066 -1072 0
-1066 -1078 0
-1066 -1084 0
-1066 -1090 0
-1066 -1096 0
-1066 -1102 0
-1066 -1108 0
-1066 -1114 0
-1066 -1120 0
-1066 -1126 0
-1066 -1132 0
-1066 -1138 0
-1066 -1144 0
-1066 -1150 0
-1066 -1156 0
-1066 -1162 0
-1066 -1168 0
-1066 -1174 0
-1066 -1180 0
-1066 -1186 0
-1066 -1192 0
-1066 -1198 0
-1066 -1204 0
-1066 -1210 0
-1066 -1216 0
-1066 -1222 0
-1066 -1228 0
-1066 -1234 0
-1066 -1240 0
-1066 -1246 0
-1066 -1252 0
-1066 -1258 0
-1066 -1264 0
-1072 -1078 0
-1072 -1084 0
-1072 -1090 0
-1072 -1096 0
-1072 -1102 0
-1072 -1108 0
-1072 -1114 0
-1072 -1120 0
-1072 -1126 0
-1072 -1132 0
-1072 -1138 0
-1072 -1144 0
-1072 -1150 0
-1072 -1156 0
-1072 -1162 0
-1072 -1168 0
-1072 -1174 0
-1072 -1180 0
-1072 -1186 0
-1072 -1192 0
-1072 -1198 0
-1072 -1204 0
-1072 -1210 0
-1072 -1216 0
-1072 -1222 0
-1072 -1228 0
-1072 -1234 0
-1072 -1240 0
-1072 -1246 0
-1072 -1252 0
-1072 -1258 0
-1072 -1264 0
-1078 -1084 0
-1078 -1090 0
-1078 -1096 0
-1078 -1102 0
-1078 -1108 0
-1078 -1114 0
-1078 -1120 0
-1078 -1126 0
-1078 -1132 0
-1078 -1138 0
-1078 -1144 0
-1078 -1150 0
-1078 -1156 0
-1078 -1162 0
-1078 -1168 0
-1078 -1174 0
-1078 -1180 0
-1078 -1186 0
-1078 -1192 0
-1078 -1198 0
-1078 -1204 0
-1078 -1210 0
-1078 -1216 0
-1078 -1222 0
-1078 -1228 0
-1078 -1234 0
-1078 -1240 0
-1078 -1246 0
-1078 -1252 0
-1078 -1258 0
-1078 -1264 0
-1084 -1090 0
-1084 -1096 0
-1084 -1102 0
-1084 -1108 0
-1084 -1114 0
-1084 -1120 0
-1084 -1126 0
-1084 -1132 0
-1084 -1138 0
-1084 -1144 0
-1084 -1150 0
-1084 -1156 0
-1084 -1162 0
-1084 -1168 0
-1084 -1174 0
-1084 -1180 0
-1084 -1186 0
-1084 -1192 0
-1084 -1198 0
-1084 -1204 0
-1084 -1210 0
-1084 -1216 0
-1084 -1222 0
-1084 -1228 0
-1084 -1234 0
-1084 -1240 0
-1084 -1246 0
-1084 -1252 0
-1084 -1258 0
-1084 -1264 0
-1090 -1096 0
-1090 -1102 0
-1090 -1108 0
-1090 -1114 0
-1090 -1120 0
-1090 -1126 0
-1090 -1132 0
-1090 -1138 0
-1090 -1144 0
-1090 -1150 0
-1090 -1156 0
-1090 -1162 0
-1090 -1168 0
-1090 -1174 0
-1090 -1180 0
-1090 -1186 0
-1090 -1192 0
-1090 -1198 0
-1090 -1204 0
-1090 -1210 0
-1090 -1216 0
-1090 -1222 0
-1090 -1228 0
-1090 -1234 0
-1090 -1240 0
-1090 -1246 0
-1090 -1252 0
-1090 -1258 0
-1090 -1264 0
-1096 -1102 0
-1096 -1108 0
-1096 -1114 0
-1096 -1120 0
-1096 -1126 0
-1096 -1132 0
-1096 -1138 0
-1096 -1144 0
-1096 -1150 0
-1096 -1156 0
-1096 -1162 0
-1096 -1168 0
-1096 -1174 0
-1096 -1180 0
-1096 -1186 0
-1096 -1192 0
-1096 -1198 0
-1096 -1204 0
-1096 -1210 0
-1096 -1216 0
-1096 -1222 0
-1096 -1228 0
-1096 -1234 0
-1096 -1240 0
-1096 -1246 0
-1096 -1252 0
-1096 -1258 0
-1096 -1264 0
-1102 -1108 0
-1102 -1114 0
-1102 -1120 0
-1102 -1126 0
-1102 -1132 0
-1102 -1138 0
-1102 -1144 0
-1102 -1150 0
-1102 -1156 0
-1102 -1162 0
-1102 -1168 0
-1102 -1174 0
-1102 -1180 0
-1102 -1186 0
-1102 -1192 0
-1102 -1198 0
-1102 -1204 0
-1102 -1210 0
-1102 -1216 0
-1102 -1222 0
-1102 -1228 0
-1102 -1234 0
-1102 -1240 0
-1102 -1246 0
-1102 -1252 0
-1102 -1258 0
-1102 -1264 0
-1108 -1114 0
-1108 -1120 0
-1108 -1126 0
-1108 -1132 0
-1108 -1138 0
-1108 -1144 0
-1108 -1150 0
-1108 -1156 0
-1108 -1162 0
-1108 -1168 0
-1108 -1174 0
-1108 -1180 0
-1108 -1186 0
-1108 -1192 0
-1108 -1198 0
-1108 -1204 0
-1108 -1210 0
-1108 -1216 0
-1108 -1222 0
-1108 -1228 0
-1108 -1234 0
-1108 -1240 0
-1108 -1246 0
-1108 -1252 0
-1108 -1258 0
-1108 -1264 0
-1114 -1120 0
-1114 -1126 0
-1114 -1132 0
-1114 -1138 0
-1114 -1144 0
-1114 -1150 0
-1114 -1156 0
-1114 -1162 0
-1114 -1168 0
-1114 -1174 0
-1114 -1180 0
-1114 -1186 0
-1114 -1192 0
-1114 -1198 0
-1114 -1204 0
-1114 -1210 0
-1114 -1216 0
-1114 -1222 0
-1114 -1228 0
-1114 -1234 0
-1114 -1240 0
-1114 -1246 0
-1114 -1252 0
-1114 -1258 0
-1114 -1264 0
-1120 -1126 0
-1120 -1132 0
-1120 -1138 0
-1120 -1144 0
-1120 -1150 0
-1120 -1156 0
-1120 -1162 0
-1120 -1168 0
-1120 -1174 0
-1120 -1180 0
-1120 -1186 0
-1120 -1192 0
-1120 -1198 0
-1120 -1204 0
-1120 -1210 0
-1120 -1216 0
-1120 -1222 0
-1120 -1228 0
-1120 -1234 0
-1120 -1240 0
-1120 -1246 0
-1120 -1252 0
-1120 -1258 0
-1120 -1264 0
-1126 -1132 0
-1126 -1138 0
-1126 -1144 0
-1126 -1150 0
-1126 -1156 0
-1126 -1162 0
-1126 -1168 0
-1126 -1174 0
-1126 -1180 0
-1126 -1186 0
-1126 -1192 0
-1126 -1198 0
-1126 -1204 0
-1126 -1210 0
-1126 -1216 0
-1126 -1222 0
-1126 -1228 0
-1126 -1234 0
-1126 -1240 0
-1126 -1246 0
-1126 -1252 0
-1126 -1258 0
-1126 -1264 0
-1132 -1138 0
-1132 -1144 0
-1132 -1150 0
-1132 -1156 0
-1132 -1162 0
-1132 -1168 0
-1132 -1174 0
-1132 -1180 0
-1132 -1186 0
-1132 -1192 0
-1132 -1198 0
-1132 -1204 0
-1132 -1210 0
-1132 -1216 0
-1132 -1222 0
-1132 -1228 0
-1132 -1234 0
-1132 -1240 0
-1132 -1246 0
-1132 -1252 0
-1132 -1258 0
-1132 -1264 0
-1138 -1144 0
-1138 -1150 0
-1138 -1156 0
-1138 -1162 0
-1138 -1168 0
-1138 -1174 0
-1138 -1180 0
-1138 -1186 0
-1138 -1192 0
-1138 -1198 0
-1138 -1204 0
-1138 -1210 0
-1138 -1216 0
-1138 -1222 0
-1138 -1228 0
-1138 -1234 0
-1138 -1240 0
-1138 -1246 0
-1138 -1252 0
-1138 -1258 0
-1138 -1264 0
-1144 -1150 0
-1144 -1156 0
-1144 -1162 0
-1144 -1168 0
-1144 -1174 0
-1144 -1180 0
-1144 -1186 0
-1144 -1192 0
-1144 -1198 0
-1144 -1204 0
-1144 -1210 0
-1144 -1216 0
-1144 -1222 0
-1144 -1228 0
-1144 -1234 0
-1144 -1240 0
-1144 -1246 0
-1144 -1252 0
-1144 -1258 0
-1144 -1264 0
-1150 -1156 0
-1150 -1162 0
-1150 -1168 0
-1150 -1174 0
-1150 -1180 0
-1150 -1186 0
-1150 -1192 0
-1150 -1198 0
-1150 -1204 0
-1150 -1210 0
-1150 -1216 0
-1150 -1222 0
-1150 -1228 0
-1150 -1234 0
-1150 -1240 0
-1150 -1246 0
-1150 -1252 0
-1150 -1258 0
-1150 -1264 0
-1156 -1162 0
-1156 -1168 0
-1156 -1174 0
-1156 -1180 0
-1156 -1186 0
-1156 -1192 0
-1156 -1198 0
-1156 -1204 0
-1156 -1210 0
-1156 -1216 0
-1156 -1222 0
-1156 -1228 0
-1156 -1234 0
-1156 -1240 0
-1156 -1246 0
-1156 -1252 0
-1156 -1258 0
-1156 -1264 0
-1162 -1168 0
-1162 -1174 0
-1162 -1180 0
-1162 -1186 0
-1162 -1192 0
-1162 -1198 0
-1162 -1204 0
-1162 -1210 0
-1162 -1216 0
-1162 -1222 0
-1162 -1228 0
-1162 -1234 0
-1162 -1240 0
-1162 -1246 0
-1162 -1252 0
-1162 -1258 0
-1162 -1264 0
-1168 -1174 0
-1168 -1180 0
-1168 -1186 0
-1168 -1192 0
-1168 -1198 0
-1168 -1204 0
-1168 -1210 0
-1168 -1216 0
-1168 -1222 0
-1168 -1228 0
-1168 -1234 0
-1168 -1240 0
-1168 -1246 0
-1168 -1252 0
-1168 -1258 0
-1168 -1264 0
-1174 -1180 0
-1174 -1186 0
-1174 -1192 0
-1174 -1198 0
-1174 -1204 0
-1174 -1210 0
-1174 -1216 0
-1174 -1222 0
-1174 -1228 0
-1174 -1234 0
-1174 -1240 0
-1174 -1246 0
-1174 -1252 0
-1174 -1258 0
-1174 -1264 0
-1180 -1186 0
-1180 -1192 0
-1180 -1198 0
-1180 -1204 0
-1180 -1210 0
-1180 -1216 0
-1180 -1222 0
-1180 -1228 0
-1180 -1234 0
-1180 -1240 0
-1180 -1246 0
-1180 -1252 0
-1180 -1258 0
-1180 -1264 0
-1186 -1192 0
-1186 -1198 0
-1186 -1204 0
-1186 -1210 0
-1186 -1216 0
-1186 -1222 0
-1186 -1228 0
-1186 -1234 0
-1186 -1240 0
-1186 -1246 0
-1186 -1252 0
-1186 -1258 0
-1186 -1264 0
-1192 -1198 0
-1192 -1204 0
-1192 -1210 0
-1192 -1216 0
-1192 -1222 0
-1192 -1228 0
-1192 -1234 0
-1192 -1240 0
-1192 -1246 0
-1192 -1252 0
-1192 -1258 0
-1192 -1264 0
-1198 -1204 0
-1198 -1210 0
-1198 -1216 0
-1198 -1222 0
-1198 -1228 0
-1198 -1234 0
-1198 -1240 0
-1198 -1246 0
-1198 -1252 0
-1198 -1258 0
-1198 -1264 0
-1204 -1210 0
-1204 -1216 0
-1204 -1222 0
-1204 -1228 0
-1204 -1234 0
-1204 -1240 0
-1204 -1246 0
-1204 -1252 0
-1204 -1258 0
-1204 -1264 0
-1210 -1216 0
-1210 -1222 0
-1210 -1228 0
-1210 -1234 0
-1210 -1240 0
-1210 -1246 0
-1210 -1252 0
-1210 -1258 0
-1210 -1264 0
-1216 -1222 0
-1216 -1228 0
-1216 -1234 0
-1216 -1240 0
-1216 -1246 0
-1216 -1252 0
-1216 -1258 0
-1216 -1264 0
-1222 -1228 0
-1222 -1234 0
-1222 -1240 0
-1222 -1246 0
-1222 -1252 0
-1222 -1258 0
-1222 -1264 0
-1228 -1234 0
-1228 -1240 0
-1228 -1246 0
-1228 -1252 0
-1228 -1258 0
-1228 -1264 0
-1234 -1240 0
-1234 -1246 0
-1234 -1252 0
-1234 -1258 0
-1234 -1264 0
-1240 -1246 0
-1240 -1252 0
-1240 -1258 0
-1240 -1264 0
-1246 -1252 0
-1246 -1258 0
-1246 -1264 0
-1252 -1258 0
-1252 -1264 0
-1258 -1264 0
-766 234 0
-766 -185 0
-766 -171 4 0
-766 -171 158 0
-766 -171 -52 0
-766 -171 -59 0
-766 -171 -66 0
-766 -171 -73 0
-766 -171 -80 0
-766 -171 -45 -178 0
-766 -171 -87 -199 0
-766 -171 -122 -220 0
-766 -171 388 514 640 0
-766 -178 4 0
-766 -178 165 0
-766 -178 -52 0
-766 -178 -59 0
-766 -178 -66 0
-766 -178 -73 0
-766 -178 -80 0
-766 -178 -45 -185 0
-766 -178 -87 -206 0
-766 -178 -122 -227 0
-766 -178 395 521 647 0
-766 -3 -171 -157 0
-766 -3 -178 -164 0
-772 234 0
-772 -185 0
-772 -171 11 0
-772 -171 158 0
-772 -171 -45 0
-772 -171 -59 0
-772 -171 -66 0
-772 -171 -73 0
-772 -171 -80 0
-772 -171 -52 -178 0
-772 -171 -87 -199 0
-772 -171 -94 -199 0
-772 -171 -122 -220 0
-772 -171 -129 -220 0
-772 -171 409 535 661 0
-772 -178 11 0
-772 -178 165 0
-772 -178 -45 0
-772 -178 -59 0
-772 -178 -66 0
-772 -178 -73 0
-772 -178 -80 0
-772 -178 -52 -185 0
-772 -178 -87 -206 0
-772 -178 -94 -206 0
-772 -178 -122 -227 0
-772 -178 -129 -227 0
-772 -178 416 542 668 0
-772 -10 -171 -157 0
-772 -10 -178 -164 0
-778 234 0
-778 -185 0
-778 -171 18 0
-778 -171 158 0
-778 -171 -45 0
-778 -171 -52 0
-778 -171 -66 0
-778 -171 -73 0
-778 -171 -80 0
-778 -171 -59 -178 0
-778 -171 -94 -199 0
-778 -171 -101 -199 0
-778 -171 -122 -220 0
-778 -171 -129 -220 0
-778 -171 -136 -220 0
-778 -171 430 556 682 0
-778 -178 18 0
-778 -178 165 0
-778 -178 -45 0
-778 -178 -52 0
-778 -178 -66 0
-778 -178 -73 0
-778 -178 -80 0
-778 -178 -59 -185 0
-778 -178 -94 -206 0
-778 -178 -101 -206 0
-778 -178 -122 -227 0
-778 -178 -129 -227 0
-778 -178 -136 -227 0
-778 -178 437 563 689 0
-778 -17 -171 -157 0
-778 -17 -178 -164 0
-784 234 0
-784 -185 0
-784 -171 25 0
-784 -171 158 0
-784 -171 -45 0
-784 -171 -52 0
-784 -171 -59 0
-784 -171 -73 0
-784 -171 -80 0
-784 -171 -66 -178 0
-784 -171 -101 -199 0
-784 -171 -108 -199 0
-784 -171 -129 -220 0
-784 -171 -136 -220 0
-784 -171 -143 -220 0
-784 -171 451 577 703 0
-784 -178 25 0
-784 -178 165 0
-784 -178 -45 0
-784 -178 -52 0
-784 -178 -59 0
-784 -178 -73 0
-784 -178 -80 0
-784 -178 -66 -185 0
-784 -178 -101 -206 0
-784 -178 -108 -206 0
-784 -178 -129 -227 0
-784 -178 -136 -227 0
-784 -178 -143 -227 0
-784 -178 458 584 710 0
-784 -24 -171 -157 0
-784 -24 -178 -164 0
-790 234 0
-790 -185 0
-790 -171 32 0
-790 -171 158 0
-790 -171 -45 0
-790 -171 -52 0
-790 -171 -59 0
-790 -171 -66 0
-790 -171 -80 0
-790 -171 -73 -178 0
-790 -171 -108 -199 0
-790 -171 -115 -199 0
-790 -171 -136 -220 0
-790 -171 -143 -220 0
-790 -171 472 598 724 0
-790 -178 32 0
-790 -178 165 0
-790 -178 -45 0
-790 -178 -52 0
-790 -178 -59 0
-790 -178 -66 0
-790 -178 -80 0
-790 -178 -73 -185 0
-790 -178 -108 -206 0
-790 -178 -115 -206 0
-790 -178 -136 -227 0
-790 -178 -143 -227 0
-790 -178 479 605 731 0
-790 -31 -171 -157 0
-790 -31 -178 -164 0
-796 234 0
-796 -185 0
-796 -171 39 0
-796 -171 158 0
-796 -171 -45 0
-796 -171 -52 0
-796 -171 -59 0
-796 -171 -66 0
-796 -171 -73 0
-796 -171 -80 -178 0
-796 -171 -115 -199 0
-796 -171 -143 -220 0
-796 -171 493 619 745 0
-796 -178 39 0
-796 -178 165 0
-796 -178 -45 0
-796 -178 -52 0
-796 -178 -59 0
-796 -178 -66 0
-796 -178 -73 0
-796 -178 -80 -185 0
-796 -178 -115 -206 0
-796 -178 -143 -227 0
-796 -178 500 626 752 0
-796 -38 -171 -157 0
-796 -38 -178 -164 0
-802 234 0
-802 -206 0
-802 -192 4 0
-802 -192 158 0
-802 -192 -94 0
-802 -192 -101 0
-802 -192 -108 0
-802 -192 -115 0
-802 -192 -45 -178 0
-802 -192 -87 -199 0
-802 -192 -122 -220 0
-802 -192 388 514 640 0
-802 -199 4 0
-802 -199 165 0
-802 -199 -94 0
-802 -199 -101 0
-802 -199 -108 0
-802 -199 -115 0
-802 -199 -45 -185 0
-802 -199 -87 -206 0
-802 -199 -122 -227 0
-802 -199 395 521 647 0
-802 -3 -192 -157 0
-802 -3 -199 -164 0
-808 234 0
-808 -206 0
-808 -192 11 0
-808 -192 158 0
-808 -192 -101 0
-808 -192 -108 0
-808 -192 -115 0
-808 -192 -52 -178 0
-808 -192 -87 -199 0
-808 -192 -94 -199 0
-808 -192 -122 -220 0
-808 -192 -129 -220 0
-808 -192 409 535 661 0
-808 -199 11 0
-808 -199 165 0
-808 -199 -101 0
-808 -199 -108 0
-808 -199 -115 0
-808 -199 -52 -185 0
-808 -199 -87 -206 0
-808 -199 -94 -206 0
-808 -199 -122 -227 0
-808 -199 -129 -227 0
-808 -199 416 542 668 0
-808 -10 -192 -157 0
-808 -10 -199 -164 0
-814 234 0
-814 -206 0
-814 -192 18 0
-814 -192 158 0
-814 -192 -87 0
-814 -192 -108 0
-814 -192 -115 0
-814 -192 -59 -178 0
-814 -192 -94 -199 0
-814 -192 -101 -199 0
-814 -192 -122 -220 0
-814 -192 -129 -220 0
-814 -192 -136 -220 0
-814 -192 430 556 682 0
-814 -199 18 0
-814 -199 165 0
-814 -199 -87 0
-814 -199 -108 0
-814 -199 -115 0
-814 -199 -59 -185 0
-814 -199 -94 -206 0
-814 -199 -101 -206 0
-814 -199 -122 -227 0
-814 -199 -129 -227 0
-814 -199 -136 -227 0
-814 -199 437 563 689 0
-814 -17 -192 -157 0
-814 -17 -199 -164 0
-820 234 0
-820 -206 0
-820 -192 25 0
-820 -192 158 0
-820 -192 -87 0
-820 -192 -94 0
-820 -192 -115 0
-820 -192 -66 -178 0
-820 -192 -101 -199 0
-820 -192 -108 -199 0
-820 -192 -129 -220 0
-820 -192 -136 -220 0
-820 -192 -143 -220 0
-820 -192 451 577 703 0
-820 -199 25 0
-820 -199 165 0
-820 -199 -87 0
-820 -199 -94 0
-820 -199 -115 0
-820 -199 -66 -185 0
-820 -199 -101 -206 0
-820 -199 -108 -206 0
-820 -199 -129 -227 0
-820 -199 -136 -227 0
-820 -199 -143 -227 0
-820 -199 458 584 710 0
-820 -24 -192 -157 0
-820 -24 -199 -164 0
-826 234 0
-826 -206 0
-826 -192 32 0
-826 -192 158 0
-826 -192 -87 0
-826 -192 -94 0
-826 -192 -101 0
-826 -192 -73 -178 0
-826 -192 -108 -199 0
-826 -192 -115 -199 0
-826 -192 -136 -220 0
-826 -192 -143 -220 0
-826 -192 472 598 724 0
-826 -199 32 0
-826 -199 165 0
-826 -199 -87 0
-826 -199 -94 0
-826 -199 -101 0
-826 -199 -73 -185 0
-826 -199 -108 -206 0
-826 -199 -115 -206 0
-826 -199 -136 -227 0
-826 -199 -143 -227 0
-826 -199 479 605 731 0
-826 -31 -192 -157 0
-826 -31 -199 -164 0
-832 234 0
-832 -206 0
-832 -192 39 0
-832 -192 158 0
-832 -192 -87 0
-832 -192 -94 0
-832 -192 -101 0
-832 -192 -108 0
-832 -192 -80 -178 0
-832 -192 -115 -199 0
-832 -192 -143 -220 0
-832 -192 493 619 745 0
-832 -199 39 0
-832 -199 165 0
-832 -199 -87 0
-832 -199 -94 0
-832 -199 -101 0
-832 -199 -108 0
-832 -199 -80 -185 0
-832 -199 -115 -206 0
-832 -199 -143 -227 0
-832 -199 500 626 752 0
-832 -38 -192 -157 0
-832 -38 -199 -164 0
-838 234 0
-838 -227 0
-838 -213 4 0
-838 -213 158 0
-838 -213 -129 0
-838 -213 -136 0
-838 -213 -143 0
-838 -213 -45 -178 0
-838 -213 -87 -199 0
-838 -213 -122 -220 0
-838 -213 388 514 640 0
-838 -220 4 0
-838 -220 165 0
-838 -220 -129 0
-838 -220 -136 0
-838 -220 -143 0
-838 -220 -45 -185 0
-838 -220 -87 -206 0
-838 -220 -122 -227 0
-838 -220 395 521 647 0
-838 -3 -213 -157 0
-838 -3 -220 -164 0
-844 234 0
-844 -227 0
-844 -213 11 0
-844 -213 158 0
-844 -213 -136 0
-844 -213 -143 0
-844 -213 -52 -178 0
-844 -213 -87 -199 0
-844 -213 -94 -199 0
-844 -213 -122 -220 0
-844 -213 -129 -220 0
-844 -213 409 535 661 0
-844 -220 11 0
-844 -220 165 0
-844 -220 -136 0
-844 -220 -143 0
-844 -220 -52 -185 0
-844 -220 -87 -206 0
-844 -220 -94 -206 0
-844 -220 -122 -227 0
-844 -220 -129 -227 0
-844 -220 416 542 668 0
-844 -10 -213 -157 0
-844 -10 -220 -164 0
-850 234 0
-850 -227 0
-850 -213 18 0
-850 -213 158 0
-850 -213 -143 0
-850 -213 -59 -178 0
-850 -213 -94 -199 0
-850 -213 -101 -199 0
-850 -213 -122 -220 0
-850 -213 -129 -220 0
-850 -213 -136 -220 0
-850 -213 430 556 682 0
-850 -220 18 0
-850 -220 165 0
-850 -220 -143 0
-850 -220 -59 -185 0
-850 -220 -94 -206 0
-850 -220 -101 -206 0
-850 -220 -122 -227 0
-850 -220 -129 -227 0
-850 -220 -136 -227 0
-850 -220 437 563 689 0
-850 -17 -213 -157 0
-850 -17 -220 -164 0
-856 234 0
-856 -227 0
-856 -213 25 0
-856 -213 158 0
-856 -213 -122 0
-856 -213 -66 -178 0
-856 -213 -101 -199 0
-856 -213 -108 -199 0
-856 -213 -129 -220 0
-856 -213 -136 -220 0
-856 -213 -143 -220 0
-856 -213 451 577 703 0
-856 -220 25 0
-856 -220 165 0
-856 -220 -122 0
-856 -220 -66 -185 0
-856 -220 -101 -206 0
-856 -220 -108 -206 0
-856 -220 -129 -227 0
-856 -220 -136 -227 0
-856 -220 -143 -227 0
-856 -220 458 584 710 0
-856 -24 -213 -157 0
-856 -24 -220 -164 0
-862 234 0
-862 -227 0
-862 -213 32 0
-862 -213 158 0
-862 -213 -122 0
-862 -213 -129 0
-862 -213 -73 -178 0
-862 -213 -108 -199 0
-862 -213 -115 -199 0
-862 -213 -136 -220 0
-862 -213 -143 -220 0
-862 -213 472 598 724 0
-862 -220 32 0
-862 -220 165 0
-862 -220 -122 0
-862 -220 -129 0
-862 -220 -73 -185 0
-862 -220 -108 -206 0
-862 -220 -115 -206 0
-862 -220 -136 -227 0
-862 -220 -143 -227 0
-862 -220 479 605 731 0
-862 -31 -213 -157 0
-862 -31 -220 -164 0
-868 234 0
-868 -227 0
-868 -213 39 0
-868 -213 158 0
-868 -213 -122 0
-868 -213 -129 0
-868 -213 -136 0
-868 -213 -80 -178 0
-868 -213 -115 -199 0
-868 -213 -143 -220 0
-868 -213 493 619 745 0
-868 -220 39 0
-868 -220 165 0
-868 -220 -122 0
-868 -220 -129 0
-868 -220 -136 0
-868 -220 -80 -185 0
-868 -220 -115 -206 0
-868 -220 -143 -227 0
-868 -220 500 626 752 0
-868 -38 -213 -157 0
-868 -38 -220 -164 0
-874 234 0
-874 4 0
-874 151 0
-874 -3 -150 0
-874 -45 -171 0
-874 -87 -192 0
-874 -122 -213 0
-880 234 0
-880 11 0
-880 151 0
-880 -10 -150 0
-880 -52 -171 0
-880 -87 -192 0
-880 -94 -192 0
-880 -122 -213 0
-880 -129 -213 0
-886 234 0
-886 18 0
-886 151 0
-886 -17 -150 0
-886 -59 -171 0
-886 -94 -192 0
-886 -101 -192 0
-886 -122 -213 0
-886 -129 -213 0
-886 -136 -213 0
-892 234 0
-892 25 0
-892 151 0
-892 -24 -150 0
-892 -66 -171 0
-892 -101 -192 0
-892 -108 -192 0
-892 -129 -213 0
-892 -136 -213 0
-892 -143 -213 0
-898 234 0
-898 32 0
-898 151 0
-898 -31 -150 0
-898 -73 -171 0
-898 -108 -192 0
-898 -115 -192 0
-898 -136 -213 0
-898 -143 -213 0
-904 234 0
-904 39 0
-904 151 0
-904 -38 -150 0
-904 -80 -171 0
-904 -115 -192 0
-904 -143 -213 0
-910 241 0
-910 -164 0
-910 -150 46 0
-910 -150 179 0
-910 -150 -10 0
-910 -150 -17 0
-910 -150 -24 0
-910 -150 -31 0
-910 -150 -38 0
-910 -150 -3 -157 0
-910 -150 -87 -199 0
-910 -150 -122 -220 0
-910 -150 262 514 640 0
-910 -157 46 0
-910 -157 186 0
-910 -157 -10 0
-910 -157 -17 0
-910 -157 -24 0
-910 -157 -31 0
-910 -157 -38 0
-910 -157 -3 -164 0
-910 -157 -87 -206 0
-910 -157 -122 -227 0
-910 -157 269 521 647 0
-910 -45 -150 -178 0
-910 -45 -157 -185 0
-916 241 0
-916 -164 0
-916 -150 53 0
-916 -150 179 0
-916 -150 -3 0
-916 -150 -17 0
-916 -150 -24 0
-916 -150 -31 0
-916 -150 -38 0
-916 -150 -10 -157 0
-916 -150 -87 -199 0
-916 -150 -94 -199 0
-916 -150 -122 -220 0
-916 -150 -129 -220 0
-916 -150 283 535 661 0
-916 -157 53 0
-916 -157 186 0
-916 -157 -3 0
-916 -157 -17 0
-916 -157 -24 0
-916 -157 -31 0
-916 -157 -38 0
-916 -157 -10 -164 0
-916 -157 -87 -206 0
-916 -157 -94 -206 0
-916 -157 -122 -227 0
-916 -157 -129 -227 0
-916 -157 290 542 668 0
-916 -52 -150 -178 0
-916 -52 -157 -185 0
-922 241 0
-922 -164 0
-922 -150 60 0
-922 -150 179 0
-922 -150 -3 0
-922 -150 -10 0
-922 -150 -24 0
-922 -150 -31 0
-922 -150 -38 0
-922 -150 -17 -157 0
-922 -150 -94 -199 0
-922 -150 -101 -199 0
-922 -150 -122 -220 0
-922 -150 -129 -220 0
-922 -150 -136 -220 0
-922 -150 304 556 682 0
-922 -157 60 0
-922 -157 186 0
-922 -157 -3 0
-922 -157 -10 0
-922 -157 -24 0
-922 -157 -31 0
-922 -157 -38 0
-922 -157 -17 -164 0
-922 -157 -94 -206 0
-922 -157 -101 -206 0
-922 -157 -122 -227 0
-922 -157 -129 -227 0
-922 -157 -136 -227 0
-922 -157 311 563 689 0
-922 -59 -150 -178 0
-922 -59 -157 -185 0
-928 241 0
-928 -164 0
-928 -150 67 0
-928 -150 179 0
-928 -150 -3 0
-928 -150 -10 0
-928 -150 -17 0
-928 -150 -31 0
-928 -150 -38 0
-928 -150 -24 -157 0
-928 -150 -101 -199 0
-928 -150 -108 -199 0
-928 -150 -129 -220 0
-928 -150 -136 -220 0
-928 -150 -143 -220 0
-928 -150 325 577 703 0
-928 -157 67 0
-928 -157 186 0
-928 -157 -3 0
-928 -157 -10 0
-928 -157 -17 0
-928 -157 -31 0
-928 -157 -38 0
-928 -157 -24 -164 0
-928 -157 -101 -206 0
-928 -157 -108 -206 0
-928 -157 -129 -227 0
-928 -157 -136 -227 0
-928 -157 -143 -227 0
-928 -157 332 584 710 0
-928 -66 -150 -178 0
-928 -66 -157 -185 0
-934 241 0
-934 -164 0
-934 -150 74 0
-934 -150 179 0
-934 -150 -3 0
-934 -150 -10 0
-934 -150 -17 0
-934 -150 -24 0
-934 -150 -38 0
-934 -150 -31 -157 0
-934 -150 -108 -199 0
-934 -150 -115 -199 0
-934 -150 -136 -220 0
-934 -150 -143 -220 0
-934 -150 346 598 724 0
-934 -157 74 0
-934 -157 186 0
-934 -157 -3 0
-934 -157 -10 0
-934 -157 -17 0
-934 -157 -24 0
-934 -157 -38 0
-934 -157 -31 -164 0
-934 -157 -108 -206 0
-934 -157 -115 -206 0
-934 -157 -136 -227 0
-934 -157 -143 -227 0
-934 -157 353 605 731 0
-934 -73 -150 -178 0
-934 -73 -157 -185 0
-940 241 0
-940 -164 0
-940 -150 81 0
-940 -150 179 0
-940 -150 -3 0
-940 -150 -10 0
-940 -150 -17 0
-940 -150 -24 0
-940 -150 -31 0
-940 -150 -38 -157 0
-940 -150 -115 -199 0
-940 -150 -143 -220 0
-940 -150 367 619 745 0
-940 -157 81 0
-940 -157 186 0
-940 -157 -3 0
-940 -157 -10 0
-940 -157 -17 0
-940 -157 -24 0
-940 -157 -31 0
-940 -157 -38 -164 0
-940 -157 -115 -206 0
-940 -157 -143 -227 0
-940 -157 374 626 752 0
-940 -80 -150 -178 0
-940 -80 -157 -185 0
-946 241 0
-946 -206 0
-946 -192 46 0
-946 -192 179 0
-946 -192 -94 0
-946 -192 -101 0
-946 -192 -108 0
-946 -192 -115 0
-946 -192 -3 -157 0
-946 -192 -87 -199 0
-946 -192 -122 -220 0
-946 -192 262 514 640 0
-946 -199 46 0
-946 -199 186 0
-946 -199 -94 0
-946 -199 -101 0
-946 -199 -108 0
-946 -199 -115 0
-946 -199 -3 -164 0
-946 -199 -87 -206 0
-946 -199 -122 -227 0
-946 -199 269 521 647 0
-946 -45 -192 -178 0
-946 -45 -199 -185 0
-952 241 0
-952 -206 0
-952 -192 53 0
-952 -192 179 0
-952 -192 -101 0
-952 -192 -108 0
-952 -192 -115 0
-952 -192 -10 -157 0
-952 -192 -87 -199 0
-952 -192 -94 -199 0
-952 -192 -122 -220 0
-952 -192 -129 -220 0
-952 -192 283 535 661 0
-952 -199 53 0
-952 -199 186 0
-952 -199 -101 0
-952 -199 -108 0
-952 -199 -115 0
-952 -199 -10 -164 0
-952 -199 -87 -206 0
-952 -199 -94 -206 0
-952 -199 -122 -227 0
-952 -199 -129 -227 0
-952 -199 290 542 668 0
-952 -52 -192 -178 0
-952 -52 -199 -185 0
-958 241 0
-958 -206 0
-958 -192 60 0
-958 -192 179 0
-958 -192 -87 0
-958 -192 -108 0
-958 -192 -115 0
-958 -192 -17 -157 0
-958 -192 -94 -199 0
-958 -192 -101 -199 0
-958 -192 -122 -220 0
-958 -192 -129 -220 0
-958 -192 -136 -220 0
-958 -192 304 556 682 0
-958 -199 60 0
-958 -199 186 0
-958 -199 -87 0
-958 -199 -108 0
-958 -199 -115 0
-958 -199 -17 -164 0
-958 -199 -94 -206 0
-958 -199 -101 -206 0
-958 -199 -122 -227 0
-958 -199 -129 -227 0
-958 -199 -136 -227 0
-958 -199 311 563 689 0
-958 -59 -192 -178 0
-958 -59 -199 -185 0
-964 241 0
-964 -206 0
-964 -192 67 0
-964 -192 179 0
-964 -192 -87 0
-964 -192 -94 0
-964 -192 -115 0
-964 -192 -24 -157 0
-964 -192 -101 -199 0
-964 -192 -108 -199 0
-964 -192 -129 -220 0
-964 -192 -136 -220 0
-964 -192 -143 -220 0
-964 -192 325 577 703 0
-964 -199 67 0
-964 -199 186 0
-964 -199 -87 0
-964 -199 -94 0
-964 -199 -115 0
-964 -199 -24 -164 0
-964 -199 -101 -206 0
-964 -199 -108 -206 0
-964 -199 -129 -227 0
-964 -199 -136 -227 0
-964 -199 -143 -227 0
-964 -199 332 584 710 0
-964 -66 -192 -178 0
-964 -66 -199 -185 0
-970 241 0
-970 -206 0
-970 -192 74 0
-970 -192 179 0
-970 -192 -87 0
-970 -192 -94 0
-970 -192 -101 0
-970 -192 -31 -157 0
-970 -192 -108 -199 0
-970 -192 -115 -199 0
-970 -192 -136 -220 0
-970 -192 -143 -220 0
-970 -192 346 598 724 0
-970 -199 74 0
-970 -199 186 0
-970 -199 -87 0
-970 -199 -94 0
-970 -199 -101 0
-970 -199 -31 -164 0
-970 -199 -108 -206 0
-970 -199 -115 -206 0
-970 -199 -136 -227 0
-970 -199 -143 -227 0
-970 -199 353 605 731 0
-970 -73 -192 -178 0
-970 -73 -199 -185 0
-976 241 0
-976 -206 0
-976 -192 81 0
-976 -192 179 0
-976 -192 -87 0
-976 -192 -94 0
-976 -192 -101 0
-976 -192 -108 0
-976 -192 -38 -157 0
-976 -192 -115 -199 0
-976 -192 -143 -220 0
-976 -192 367 619 745 0
-976 -199 81 0
-976 -199 186 0
-976 -199 -87 0
-976 -199 -94 0
-976 -199 -101 0
-976 -199 -108 0
-976 -199 -38 -164 0
-976 -199 -115 -206 0
-976 -199 -143 -227 0
-976 -199 374 626 752 0
-976 -80 -192 -178 0
-976 -80 -199 -185 0
-982 241 0
-982 -227 0
-982 -213 46 0
-982 -213 179 0
-982 -213 -129 0
-982 -213 -136 0
-982 -213 -143 0
-982 -213 -3 -157 0
-982 -213 -87 -199 0
-982 -213 -122 -220 0
-982 -213 262 514 640 0
-982 -220 46 0
-982 -220 186 0
-982 -220 -129 0
-982 -220 -136 0
-982 -220 -143 0
-982 -220 -3 -164 0
-982 -220 -87 -206 0
-982 -220 -122 -227 0
-982 -220 269 521 647 0
-982 -45 -213 -178 0
-982 -45 -220 -185 0
-988 241 0
-988 -227 0
-988 -213 53 0
-988 -213 179 0
-988 -213 -136 0
-988 -213 -143 0
-988 -213 -10 -157 0
-988 -213 -87 -199 0
-988 -213 -94 -199 0
-988 -213 -122 -220 0
-988 -213 -129 -220 0
-988 -213 283 535 661 0
-988 -220 53 0
-988 -220 186 0
-988 -220 -136 0
-988 -220 -143 0
-988 -220 -10 -164 0
-988 -220 -87 -206 0
-988 -220 -94 -206 0
-988 -220 -122 -227 0
-988 -220 -129 -227 0
-988 -220 290 542 668 0
-988 -52 -213 -178 0
-988 -52 -220 -185 0
-994 241 0
-994 -227 0
-994 -213 60 0
-994 -213 179 0
-994 -213 -143 0
-994 -213 -17 -157 0
-994 -213 -94 -199 0
-994 -213 -101 -199 0
-994 -213 -122 -220 0
-994 -213 -129 -220 0
-994 -213 -136 -220 0
-994 -213 304 556 682 0
-994 -220 60 0
-994 -220 186 0
-994 -220 -143 0
-994 -220 -17 -164 0
-994 -220 -94 -206 0
-994 -220 -101 -206 0
-994 -220 -122 -227 0
-994 -220 -129 -227 0
-994 -220 -136 -227 0
-994 -220 311 563 689 0
-994 -59 -213 -178 0
-994 -59 -220 -185 0
-1000 241 0
-1000 -227 0
-1000 -213 67 0
-1000 -213 179 0
-1000 -213 -122 0
-1000 -213 -24 -157 0
-1000 -213 -101 -199 0
-1000 -213 -108 -199 0
-1000 -213 -129 -220 0
-1000 -213 -136 -220 0
-1000 -213 -143 -220 0
-1000 -213 325 577 703 0
-1000 -220 67 0
-1000 -220 186 0
-1000 -220 -122 0
-1000 -220 -24 -164 0
-1000 -220 -101 -206 0
-1000 -220 -108 -206 0
-1000 -220 -129 -227 0
-1000 -220 -136 -227 0
-1000 -220 -143 -227 0
-1000 -220 332 584 710 0
-1000 -66 -213 -178 0
-1000 -66 -220 -185 0
-1006 241 0
-1006 -227 0
-1006 -213 74 0
-1006 -213 179 0
-1006 -213 -122 0
-1006 -213 -129 0
-1006 -213 -31 -157 0
-1006 -213 -108 -199 0
-1006 -213 -115 -199 0
-1006 -213 -136 -220 0
-1006 -213 -143 -220 0
-1006 -213 346 598 724 0
-1006 -220 74 0
-1006 -220 186 0
-1006 -220 -122 0
-1006 -220 -129 0
-1006 -220 -31 -164 0
-1006 -220 -108 -206 0
-1006 -220 -115 -206 0
-1006 -220 -136 -227 0
-1006 -220 -143 -227 0
-1006 -220 353 605 731 0
-1006 -73 -213 -178 0
-1006 -73 -220 -185 0
-1012 241 0
-1012 -227 0
-1012 -213 81 0
-1012 -213 179 0
-1012 -213 -122 0
-1012 -213 -129 0
-1012 -213 -136 0
-1012 -213 -38 -157 0
-1012 -213 -115 -199 0
-1012 -213 -143 -220 0
-1012 -213 367 619 745 0
-1012 -220 81 0
-1012 -220 186 0
-1012 -220 -122 0
-1012 -220 -129 0
-1012 -220 -136 0
-1012 -220 -38 -164 0
-1012 -220 -115 -206 0
-1012 -220 -143 -227 0
-1012 -220 374 626 752 0
-1012 -80 -213 -178 0
-1012 -80 -220 -185 0
-1018 241 0
-1018 46 0
-1018 172 0
-1018 -45 -171 0
-1018 -3 -150 0
-1018 -87 -192 0
-1018 -122 -213 0
-1024 241 0
-1024 53 0
-1024 172 0
-1024 -52 -171 0
-1024 -10 -150 0
-1024 -87 -192 0
-1024 -94 -192 0
-1024 -122 -213 0
-1024 -129 -213 0
-1030 241 0
-1030 60 0
-1030 172 0
-1030 -59 -171 0
-1030 -17 -150 0
-1030 -94 -192 0
-1030 -101 -192 0
-1030 -122 -213 0
-1030 -129 -213 0
-1030 -136 -213 0
-1036 241 0
-1036 67 0
-1036 172 0
-1036 -66 -171 0
-1036 -24 -150 0
-1036 -101 -192 0
-1036 -108 -192 0
-1036 -129 -213 0
-1036 -136 -213 0
-1036 -143 -213 0
-1042 241 0
-1042 74 0
-1042 172 0
-1042 -73 -171 0
-1042 -31 -150 0
-1042 -108 -192 0
-1042 -115 -192 0
-1042 -136 -213 0
-1042 -143 -213 0
-1048 241 0
-1048 81 0
-1048 172 0
-1048 -80 -171 0
-1048 -38 -150 0
-1048 -115 -192 0
-1048 -143 -213 0
-1054 248 0
-1054 -164 0
-1054 -150 88 0
-1054 -150 200 0
-1054 -150 -17 0
-1054 -150 -24 0
-1054 -150 -31 0
-1054 -150 -38 0
-1054 -150 -3 -157 0
-1054 -150 -10 -157 0
-1054 -150 -45 -178 0
-1054 -150 -52 -178 0
-1054 -150 -122 -220 0
-1054 -150 -129 -220 0
-1054 -150 262 388 640 283 409 661 0
-1054 -157 88 0
-1054 -157 207 0
-1054 -157 -17 0
-1054 -157 -24 0
-1054 -157 -31 0
-1054 -157 -38 0
-1054 -157 -3 -164 0
-1054 -157 -10 -164 0
-1054 -157 -45 -185 0
-1054 -157 -52 -185 0
-1054 -157 -122 -227 0
-1054 -157 -129 -227 0
-1054 -157 269 395 647 290 416 668 0
-1054 -87 -150 -199 0
-1054 -87 -157 -206 0
-1060 248 0
-1060 -164 0
-1060 -150 95 0
-1060 -150 200 0
-1060 -150 -3 0
-1060 -150 -24 0
-1060 -150 -31 0
-1060 -150 -38 0
-1060 -150 -10 -157 0
-1060 -150 -17 -157 0
-1060 -150 -52 -178 0
-1060 -150 -59 -178 0
-1060 -150 -122 -220 0
-1060 -150 -129 -220 0
-1060 -150 -136 -220 0
-1060 -150 283 409 661 304 430 682 0
-1060 -157 95 0
-1060 -157 207 0
-1060 -157 -3 0
-1060 -157 -24 0
-1060 -157 -31 0
-1060 -157 -38 0
-1060 -157 -10 -164 0
-1060 -157 -17 -164 0
-1060 -157 -52 -185 0
-1060 -157 -59 -185 0
-1060 -157 -122 -227 0
-1060 -157 -129 -227 0
-1060 -157 -136 -227 0
-1060 -157 290 416 668 311 437 689 0
-1060 -94 -150 -199 0
-1060 -94 -157 -206 0
-1066 248 0
-1066 -164 0
-1066 -150 102 0
-1066 -150 200 0
-1066 -150 -3 0
-1066 -150 -10 0
-1066 -150 -31 0
-1066 -150 -38 0
-1066 -150 -17 -157 0
-1066 -150 -24 -157 0
-1066 -150 -59 -178 0
-1066 -150 -66 -178 0
-1066 -150 -122 -220 0
-1066 -150 -129 -220 0
-1066 -150 -136 -220 0
-1066 -150 -143 -220 0
-1066 -150 304 430 682 325 451 703 0
-1066 -157 102 0
-1066 -157 207 0
-1066 -157 -3 0
-1066 -157 -10 0
-1066 -157 -31 0
-1066 -157 -38 0
-1066 -157 -17 -164 0
-1066 -157 -24 -164 0
-1066 -157 -59 -185 0
-1066 -157 -66 -185 0
-1066 -157 -122 -227 0
-1066 -157 -129 -227 0
-1066 -157 -136 -227 0
-1066 -157 -143 -227 0
-1066 -157 311 437 689 332 458 710 0
-1066 -101 -150 -199 0
-1066 -101 -157 -206 0
-1072 248 0
-1072 -164 0
-1072 -150 109 0
-1072 -150 200 0
-1072 -150 -3 0
-1072 -150 -10 0
-1072 -150 -17 0
-1072 -150 -38 0
-1072 -150 -24 -157 0
-1072 -150 -31 -157 0
-1072 -150 -66 -178 0
-1072 -150 -73 -178 0
-1072 -150 -129 -220 0
-1072 -150 -136 -220 0
-1072 -150 -143 -220 0
-1072 -150 325 451 703 346 472 724 0
-1072 -157 109 0
-1072 -157 207 0
-1072 -157 -3 0
-1072 -157 -10 0
-1072 -157 -17 0
-1072 -157 -38 0
-1072 -157 -24 -164 0
-1072 -157 -31 -164 0
-1072 -157 -66 -185 0
-1072 -157 -73 -185 0
-1072 -157 -129 -227 0
-1072 -157 -136 -227 0
-1072 -157 -143 -227 0
-1072 -157 332 458 710 353 479 731 0
-1072 -108 -150 -199 0
-1072 -108 -157 -206 0
-1078 248 0
-1078 -164 0
-1078 -150 116 0
-1078 -150 200 0
-1078 -150 -3 0
-1078 -150 -10 0
-1078 -150 -17 0
-1078 -150 -24 0
-1078 -150 -31 -157 0
-1078 -150 -38 -157 0
-1078 -150 -73 -178 0
-1078 -150 -80 -178 0
-1078 -150 -136 -220 0
-1078 -150 -143 -220 0
-1078 -150 346 472 724 367 493 745 0
-1078 -157 116 0
-1078 -157 207 0
-1078 -157 -3 0
-1078 -157 -10 0
-1078 -157 -17 0
-1078 -157 -24 0
-1078 -157 -31 -164 0
-1078 -157 -38 -164 0
-1078 -157 -73 -185 0
-1078 -157 -80 -185 0
-1078 -157 -136 -227 0
-1078 -157 -143 -227 0
-1078 -157 353 479 731 374 500 752 0
-1078 -115 -150 -199 0
-1078 -115 -157 -206 0
-1084 248 0
-1084 -185 0
-1084 -171 88 0
-1084 -171 200 0
-1084 -171 -59 0
-1084 -171 -66 0
-1084 -171 -73 0
-1084 -171 -80 0
-1084 -171 -3 -157 0
-1084 -171 -10 -157 0
-1084 -171 -45 -178 0
-1084 -171 -52 -178 0
-1084 -171 -122 -220 0
-1084 -171 -129 -220 0
-1084 -171 262 388 640 283 409 661 0
-1084 -178 88 0
-1084 -178 207 0
-1084 -178 -59 0
-1084 -178 -66 0
-1084 -178 -73 0
-1084 -178 -80 0
-1084 -178 -3 -164 0
-1084 -178 -10 -164 0
-1084 -178 -45 -185 0
-1084 -178 -52 -185 0
-1084 -178 -122 -227 0
-1084 -178 -129 -227 0
-1084 -178 269 395 647 290 416 668 0
-1084 -87 -171 -199 0
-1084 -87 -178 -206 0
-1090 248 0
-1090 -185 0
-1090 -171 95 0
-1090 -171 200 0
-1090 -171 -45 0
-1090 -171 -66 0
-1090 -171 -73 0
-1090 -171 -80 0
-1090 -171 -10 -157 0
-1090 -171 -17 -157 0
-1090 -171 -52 -178 0
-1090 -171 -59 -178 0
-1090 -171 -122 -220 0
-1090 -171 -129 -220 0
-1090 -171 -136 -220 0
-1090 -171 283 409 661 304 430 682 0
-1090 -178 95 0
-1090 -178 207 0
-1090 -178 -45 0
-1090 -178 -66 0
-1090 -178 -73 0
-1090 -178 -80 0
-1090 -178 -10 -164 0
-1090 -178 -17 -164 0
-1090 -178 -52 -185 0
-1090 -178 -59 -185 0
-1090 -178 -122 -227 0
-1090 -178 -129 -227 0
-1090 -178 -136 -227 0
-1090 -178 290 416 668 311 437 689 0
-1090 -94 -171 -199 0
-1090 -94 -178 -206 0
-1096 248 0
-1096 -185 0
-1096 -171 102 0
-1096 -171 200 0
-1096 -171 -45 0
-1096 -171 -52 0
-1096 -171 -73 0
-1096 -171 -80 0
-1096 -171 -17 -157 0
-1096 -171 -24 -157 0
-1096 -171 -59 -178 0
-1096 -171 -66 -178 0
-1096 -171 -122 -220 0
-1096 -171 -129 -220 0
-1096 -171 -136 -220 0
-1096 -171 -143 -220 0
-1096 -171 304 430 682 325 451 703 0
-1096 -178 102 0
-1096 -178 207 0
-1096 -178 -45 0
-1096 -178 -52 0
-1096 -178 -73 0
-1096 -178 -80 0
-1096 -178 -17 -164 0
-1096 -178 -24 -164 0
-1096 -178 -59 -185 0
-1096 -178 -66 -185 0
-1096 -178 -122 -227 0
-1096 -178 -129 -227 0
-1096 -178 -136 -227 0
-1096 -178 -143 -227 0
-1096 -178 311 437 689 332 458 710 0
-1096 -101 -171 -199 0
-1096 -101 -178 -206 0
-1102 248 0
-1102 -185 0
-1102 -171 109 0
-1102 -171 200 0
-1102 -171 -45 0
-1102 -171 -52 0
-1102 -171 -59 0
-1102 -171 -80 0
-1102 -171 -24 -157 0
-1102 -171 -31 -157 0
-1102 -171 -66 -178 0
-1102 -171 -73 -178 0
-1102 -171 -129 -220 0
-1102 -171 -136 -220 0
-1102 -171 -143 -220 0
-1102 -171 325 451 703 346 472 724 0
-1102 -178 109 0
-1102 -178 207 0
-1102 -178 -45 0
-1102 -178 -52 0
-1102 -178 -59 0
-1102 -178 -80 0
-1102 -178 -24 -164 0
-1102 -178 -31 -164 0
-1102 -178 -66 -185 0
-1102 -178 -73 -185 0
-1102 -178 -129 -227 0
-1102 -178 -136 -227 0
-1102 -178 -143 -227 0
-1102 -178 332 458 710 353 479 731 0
-1102 -108 -171 -199 0
-1102 -108 -178 -206 0
-1108 248 0
-1108 -185 0
-1108 -171 116 0
-1108 -171 200 0
-1108 -171 -45 0
-1108 -171 -52 0
-1108 -171 -59 0
-1108 -171 -66 0
-1108 -171 -31 -157 0
-1108 -171 -38 -157 0
-1108 -171 -73 -178 0
-1108 -171 -80 -178 0
-1108 -171 -136 -220 0
-1108 -171 -143 -220 0
-1108 -171 346 472 724 367 493 745 0
-1108 -178 116 0
-1108 -178 207 0
-1108 -178 -45 0
-1108 -178 -52 0
-1108 -178 -59 0
-1108 -178 -66 0
-1108 -178 -31 -164 0
-1108 -178 -38 -164 0
-1108 -178 -73 -185 0
-1108 -178 -80 -185 0
-1108 -178 -136 -227 0
-1108 -178 -143 -227 0
-1108 -178 353 479 731 374 500 752 0
-1108 -115 -171 -199 0
-1108 -115 -178 -206 0
-1114 248 0
-1114 -227 0
-1114 -213 88 0
-1114 -213 200 0
-1114 -213 -136 0
-1114 -213 -143 0
-1114 -213 -3 -157 0
-1114 -213 -10 -157 0
-1114 -213 -45 -178 0
-1114 -213 -52 -178 0
-1114 -213 -122 -220 0
-1114 -213 -129 -220 0
-1114 -213 262 388 640 283 409 661 0
-1114 -220 88 0
-1114 -220 207 0
-1114 -220 -136 0
-1114 -220 -143 0
-1114 -220 -3 -164 0
-1114 -220 -10 -164 0
-1114 -220 -45 -185 0
-1114 -220 -52 -185 0
-1114 -220 -122 -227 0
-1114 -220 -129 -227 0
-1114 -220 269 395 647 290 416 668 0
-1114 -87 -213 -199 0
-1114 -87 -220 -206 0
-1120 248 0
-1120 -227 0
-1120 -213 95 0
-1120 -213 200 0
-1120 -213 -143 0
-1120 -213 -10 -157 0
-1120 -213 -17 -157 0
-1120 -213 -52 -178 0
-1120 -213 -59 -178 0
-1120 -213 -122 -220 0
-1120 -213 -129 -220 0
-1120 -213 -136 -220 0
-1120 -213 283 409 661 304 430 682 0
-1120 -220 95 0
-1120 -220 207 0
-1120 -220 -143 0
-1120 -220 -10 -164 0
-1120 -220 -17 -164 0
-1120 -220 -52 -185 0
-1120 -220 -59 -185 0
-1120 -220 -122 -227 0
-1120 -220 -129 -227 0
-1120 -220 -136 -227 0
-1120 -220 290 416 668 311 437 689 0
-1120 -94 -213 -199 0
-1120 -94 -220 -206 0
-1126 248 0
-1126 -227 0
-1126 -213 102 0
-1126 -213 200 0
-1126 -213 -17 -157 0
-1126 -213 -24 -157 0
-1126 -213 -59 -178 0
-1126 -213 -66 -178 0
-1126 -213 -122 -220 0
-1126 -213 -129 -220 0
-1126 -213 -136 -220 0
-1126 -213 -143 -220 0
-1126 -213 304 430 682 325 451 703 0
-1126 -220 102 0
-1126 -220 207 0
-1126 -220 -17 -164 0
-1126 -220 -24 -164 0
-1126 -220 -59 -185 0
-1126 -220 -66 -185 0
-1126 -220 -122 -227 0
-1126 -220 -129 -227 0
-1126 -220 -136 -227 0
-1126 -220 -143 -227 0
-1126 -220 311 437 689 332 458 710 0
-1126 -101 -213 -199 0
-1126 -101 -220 -206 0
-1132 248 0
-1132 -227 0
-1132 -213 109 0
-1132 -213 200 0
-1132 -213 -122 0
-1132 -213 -24 -157 0
-1132 -213 -31 -157 0
-1132 -213 -66 -178 0
-1132 -213 -73 -178 0
-1132 -213 -129 -220 0
-1132 -213 -136 -220 0
-1132 -213 -143 -220 0
-1132 -213 325 451 703 346 472 724 0
-1132 -220 109 0
-1132 -220 207 0
-1132 -220 -122 0
-1132 -220 -24 -164 0
-1132 -220 -31 -164 0
-1132 -220 -66 -185 0
-1132 -220 -73 -185 0
-1132 -220 -129 -227 0
-1132 -220 -136 -227 0
-1132 -220 -143 -227 0
-1132 -220 332 458 710 353 479 731 0
-1132 -108 -213 -199 0
-1132 -108 -220 -206 0
-1138 248 0
-1138 -227 0
-1138 -213 116 0
-1138 -213 200 0
-1138 -213 -122 0
-1138 -213 -129 0
-1138 -213 -31 -157 0
-1138 -213 -38 -157 0
-1138 -213 -73 -178 0
-1138 -213 -80 -178 0
-1138 -213 -136 -220 0
-1138 -213 -143 -220 0
-1138 -213 346 472 724 367 493 745 0
-1138 -220 116 0
-1138 -220 207 0
-1138 -220 -122 0
-1138 -220 -129 0
-1138 -220 -31 -164 0
-1138 -220 -38 -164 0
-1138 -220 -73 -185 0
-1138 -220 -80 -185 0
-1138 -220 -136 -227 0
-1138 -220 -143 -227 0
-1138 -220 353 479 731 374 500 752 0
-1138 -115 -213 -199 0
-1138 -115 -220 -206 0
-1144 248 0
-1144 88 0
-1144 193 0
-1144 -87 -192 0
-1144 -3 -150 0
-1144 -10 -150 0
-1144 -45 -171 0
-1144 -52 -171 0
-1144 -122 -213 0
-1144 -129 -213 0
-1150 248 0
-1150 95 0
-1150 193 0
-1150 -94 -192 0
-1150 -10 -150 0
-1150 -17 -150 0
-1150 -52 -171 0
-1150 -59 -171 0
-1150 -122 -213 0
-1150 -129 -213 0
-1150 -136 -213 0
-1156 248 0
-1156 102 0
-1156 193 0
-1156 -101 -192 0
-1156 -17 -150 0
-1156 -24 -150 0
-1156 -59 -171 0
-1156 -66 -171 0
-1156 -122 -213 0
-1156 -129 -213 0
-1156 -136 -213 0
-1156 -143 -213 0
-1162 248 0
-1162 109 0
-1162 193 0
-1162 -108 -192 0
-1162 -24 -150 0
-1162 -31 -150 0
-1162 -66 -171 0
-1162 -73 -171 0
-1162 -129 -213 0
-1162 -136 -213 0
-1162 -143 -213 0
-1168 248 0
-1168 116 0
-1168 193 0
-1168 -115 -192 0
-1168 -31 -150 0
-1168 -38 -150 0
-1168 -73 -171 0
-1168 -80 -171 0
-1168 -136 -213 0
-1168 -143 -213 0
-1174 255 0
-1174 -164 0
-1174 -150 123 0
-1174 -150 221 0
-1174 -150 -24 0
-1174 -150 -31 0
-1174 -150 -38 0
-1174 -150 -3 -157 0
-1174 -150 -10 -157 0
-1174 -150 -17 -157 0
-1174 -150 -45 -178 0
-1174 -150 -52 -178 0
-1174 -150 -59 -178 0
-1174 -150 -87 -199 0
-1174 -150 -94 -199 0
-1174 -150 -101 -199 0
-1174 -150 262 388 514 283 409 535 0
-1174 -150 262 388 514 304 430 556 0
-1174 -150 283 409 535 304 430 556 0
-1174 -157 123 0
-1174 -157 228 0
-1174 -157 -24 0
-1174 -157 -31 0
-1174 -157 -38 0
-1174 -157 -3 -164 0
-1174 -157 -10 -164 0
-1174 -157 -17 -164 0
-1174 -157 -45 -185 0
-1174 -157 -52 -185 0
-1174 -157 -59 -185 0
-1174 -157 -87 -206 0
-1174 -157 -94 -206 0
-1174 -157 -101 -206 0
-1174 -157 269 395 521 290 416 542 0
-1174 -157 269 395 521 311 437 563 0
-1174 -157 290 416 542 311 437 563 0
-1174 -122 -150 -220 0
-1174 -122 -157 -227 0
-1180 255 0
-1180 -164 0
-1180 -150 130 0
-1180 -150 221 0
-1180 -150 -3 0
-1180 -150 -31 0
-1180 -150 -38 0
-1180 -150 -10 -157 0
-1180 -150 -17 -157 0
-1180 -150 -24 -157 0
-1180 -150 -52 -178 0
-1180 -150 -59 -178 0
-1180 -150 -66 -178 0
-1180 -150 -87 -199 0
-1180 -150 -94 -199 0
-1180 -150 -101 -199 0
-1180 -150 -108 -199 0
-1180 -150 283 409 535 304 430 556 0
-1180 -150 283 409 535 325 451 577 0
-1180 -150 304 430 556 325 451 577 0
-1180 -157 130 0
-1180 -157 228 0
-1180 -157 -3 0
-1180 -157 -31 0
-1180 -157 -38 0
-1180 -157 -10 -164 0
-1180 -157 -17 -164 0
-1180 -157 -24 -164 0
-1180 -157 -52 -185 0
-1180 -157 -59 -185 0
-1180 -157 -66 -185 0
-1180 -157 -87 -206 0
-1180 -157 -94 -206 0
-1180 -157 -101 -206 0
-1180 -157 -108 -206 0
-1180 -157 290 416 542 311 437 563 0
-1180 -157 290 416 542 332 458 584 0
-1180 -157 311 437 563 332 458 584 0
-1180 -129 -150 -220 0
-1180 -129 -157 -227 0
-1186 255 0
-1186 -164 0
-1186 -150 137 0
-1186 -150 221 0
-1186 -150 -3 0
-1186 -150 -10 0
-1186 -150 -38 0
-1186 -150 -17 -157 0
-1186 -150 -24 -157 0
-1186 -150 -31 -157 0
-1186 -150 -59 -178 0
-1186 -150 -66 -178 0
-1186 -150 -73 -178 0
-1186 -150 -94 -199 0
-1186 -150 -101 -199 0
-1186 -150 -108 -199 0
-1186 -150 -115 -199 0
-1186 -150 304 430 556 325 451 577 0
-1186 -150 304 430 556 346 472 598 0
-1186 -150 325 451 577 346 472 598 0
-1186 -157 137 0
-1186 -157 228 0
-1186 -157 -3 0
-1186 -157 -10 0
-1186 -157 -38 0
-1186 -157 -17 -164 0
-1186 -157 -24 -164 0
-1186 -157 -31 -164 0
-1186 -157 -59 -185 0
-1186 -157 -66 -185 0
-1186 -157 -73 -185 0
-1186 -157 -94 -206 0
-1186 -157 -101 -206 0
-1186 -157 -108 -206 0
-1186 -157 -115 -206 0
-1186 -157 311 437 563 332 458 584 0
-1186 -157 311 437 563 353 479 605 0
-1186 -157 332 458 584 353 479 605 0
-1186 -136 -150 -220 0
-1186 -136 -157 -227 0
-1192 255 0
-1192 -164 0
-1192 -150 144 0
-1192 -150 221 0
-1192 -150 -3 0
-1192 -150 -10 0
-1192 -150 -17 0
-1192 -150 -24 -157 0
-1192 -150 -31 -157 0
-1192 -150 -38 -157 0
-1192 -150 -66 -178 0
-1192 -150 -73 -178 0
-1192 -150 -80 -178 0
-1192 -150 -101 -199 0
-1192 -150 -108 -199 0
-1192 -150 -115 -199 0
-1192 -150 325 451 577 346 472 598 0
-1192 -150 325 451 577 367 493 619 0
-1192 -150 346 472 598 367 493 619 0
-1192 -157 144 0
-1192 -157 228 0
-1192 -157 -3 0
-1192 -157 -10 0
-1192 -157 -17 0
-1192 -157 -24 -164 0
-1192 -157 -31 -164 0
-1192 -157 -38 -164 0
-1192 -157 -66 -185 0
-1192 -157 -73 -185 0
-1192 -157 -80 -185 0
-1192 -157 -101 -206 0
-1192 -157 -108 -206 0
-1192 -157 -115 -206 0
-1192 -157 332 458 584 353 479 605 0
-1192 -157 332 458 584 374 500 626 0
-1192 -157 353 479 605 374 500 626 0
-1192 -143 -150 -220 0
-1192 -143 -157 -227 0
-1198 255 0
-1198 -185 0
-1198 -171 123 0
-1198 -171 221 0
-1198 -171 -66 0
-1198 -171 -73 0
-1198 -171 -80 0
-1198 -171 -3 -157 0
-1198 -171 -10 -157 0
-1198 -171 -17 -157 0
-1198 -171 -45 -178 0
-1198 -171 -52 -178 0
-1198 -171 -59 -178 0
-1198 -171 -87 -199 0
-1198 -171 -94 -199 0
-1198 -171 -101 -199 0
-1198 -171 262 388 514 283 409 535 0
-1198 -171 262 388 514 304 430 556 0
-1198 -171 283 409 535 304 430 556 0
-1198 -178 123 0
-1198 -178 228 0
-1198 -178 -66 0
-1198 -178 -73 0
-1198 -178 -80 0
-1198 -178 -3 -164 0
-1198 -178 -10 -164 0
-1198 -178 -17 -164 0
-1198 -178 -45 -185 0
-1198 -178 -52 -185 0
-1198 -178 -59 -185 0
-1198 -178 -87 -206 0
-1198 -178 -94 -206 0
-1198 -178 -101 -206 0
-1198 -178 269 395 521 290 416 542 0
-1198 -178 269 395 521 311 437 563 0
-1198 -178 290 416 542 311 437 563 0
-1198 -122 -171 -220 0
-1198 -122 -178 -227 0
-1204 255 0
-1204 -185 0
-1204 -171 130 0
-1204 -171 221 0
-1204 -171 -45 0
-1204 -171 -73 0
-1204 -171 -80 0
-1204 -171 -10 -157 0
-1204 -171 -17 -157 0
-1204 -171 -24 -157 0
-1204 -171 -52 -178 0
-1204 -171 -59 -178 0
-1204 -171 -66 -178 0
-1204 -171 -87 -199 0
-1204 -171 -94 -199 0
-1204 -171 -101 -199 0
-1204 -171 -108 -199 0
-1204 -171 283 409 535 304 430 556 0
-1204 -171 283 409 535 325 451 577 0
-1204 -171 304 430 556 325 451 577 0
-1204 -178 130 0
-1204 -178 228 0
-1204 -178 -45 0
-1204 -178 -73 0
-1204 -178 -80 0
-1204 -178 -10 -164 0
-1204 -178 -17 -164 0
-1204 -178 -24 -164 0
-1204 -178 -52 -185 0
-1204 -178 -59 -185 0
-1204 -178 -66 -185 0
-1204 -178 -87 -206 0
-1204 -178 -94 -206 0
-1204 -178 -101 -206 0
-1204 -178 -108 -206 0
-1204 -178 290 416 542 311 437 563 0
-1204 -178 290 416 542 332 458 584 0
-1204 -178 311 437 563 332 458 584 0
-1204 -129 -171 -220 0
-1204 -129 -178 -227 0
-1210 255 0
-1210 -185 0
-1210 -171 137 0
-1210 -171 221 0
-1210 -171 -45 0
-1210 -171 -52 0
-1210 -171 -80 0
-1210 -171 -17 -157 0
-1210 -171 -24 -157 0
-1210 -171 -31 -157 0
-1210 -171 -59 -178 0
-1210 -171 -66 -178 0
-1210 -171 -73 -178 0
-1210 -171 -94 -199 0
-1210 -171 -101 -199 0
-1210 -171 -108 -199 0
-1210 -171 -115 -199 0
-1210 -171 304 430 556 325 451 577 0
-1210 -171 304 430 556 346 472 598 0
-1210 -171 325 451 577 346 472 598 0
-1210 -178 137 0
-1210 -178 228 0
-1210 -178 -45 0
-1210 -178 -52 0
-1210 -178 -80 0
-1210 -178 -17 -164 0
-1210 -178 -24 -164 0
-1210 -178 -31 -164 0
-1210 -178 -59 -185 0
-1210 -178 -66 -185 0
-1210 -178 -73 -185 0
-1210 -178 -94 -206 0
-1210 -178 -101 -206 0
-1210 -178 -108 -206 0
-1210 -178 -115 -206 0
-1210 -178 311 437 563 332 458 584 0
-1210 -178 311 437 563 353 479 605 0
-1210 -178 332 458 584 353 479 605 0
-1210 -136 -171 -220 0
-1210 -136 -178 -227 0
-1216 255 0
-1216 -185 0
-1216 -171 144 0
-1216 -171 221 0
-1216 -171 -45 0
-1216 -171 -52 0
-1216 -171 -59 0
-1216 -171 -24 -157 0
-1216 -171 -31 -157 0
-1216 -171 -38 -157 0
-1216 -171 -66 -178 0
-1216 -171 -73 -178 0
-1216 -171 -80 -178 0
-1216 -171 -101 -199 0
-1216 -171 -108 -199 0
-1216 -171 -115 -199 0
-1216 -171 325 451 577 346 472 598 0
-1216 -171 325 451 577 367 493 619 0
-1216 -171 346 472 598 367 493 619 0
-1216 -178 144 0
-1216 -178 228 0
-1216 -178 -45 0
-1216 -178 -52 0
-1216 -178 -59 0
-1216 -178 -24 -164 0
-1216 -178 -31 -164 0
-1216 -178 -38 -164 0
-1216 -178 -66 -185 0
-1216 -178 -73 -185 0
-1216 -178 -80 -185 0
-1216 -178 -101 -206 0
-1216 -178 -108 -206 0
-1216 -178 -115 -206 0
-1216 -178 332 458 584 353 479 605 0
-1216 -178 332 458 584 374 500 626 0
-1216 -178 353 479 605 374 500 626 0
-1216 -143 -171 -220 0
-1216 -143 -178 -227 0
-1222 255 0
-1222 -206 0
-1222 -192 123 0
-1222 -192 221 0
-1222 -192 -108 0
-1222 -192 -115 0
-1222 -192 -3 -157 0
-1222 -192 -10 -157 0
-1222 -192 -17 -157 0
-1222 -192 -45 -178 0
-1222 -192 -52 -178 0
-1222 -192 -59 -178 0
-1222 -192 -87 -199 0
-1222 -192 -94 -199 0
-1222 -192 -101 -199 0
-1222 -192 262 388 514 283 409 535 0
-1222 -192 262 388 514 304 430 556 0
-1222 -192 283 409 535 304 430 556 0
-1222 -199 123 0
-1222 -199 228 0
-1222 -199 -108 0
-1222 -199 -115 0
-1222 -199 -3 -164 0
-1222 -199 -10 -164 0
-1222 -199 -17 -164 0
-1222 -199 -45 -185 0
-1222 -199 -52 -185 0
-1222 -199 -59 -185 0
-1222 -199 -87 -206 0
-1222 -199 -94 -206 0
-1222 -199 -101 -206 0
-1222 -199 269 395 521 290 416 542 0
-1222 -199 269 395 521 311 437 563 0
-1222 -199 290 416 542 311 437 563 0
-1222 -122 -192 -220 0
-1222 -122 -199 -227 0
-1228 255 0
-1228 -206 0
-1228 -192 130 0
-1228 -192 221 0
-1228 -192 -115 0
-1228 -192 -10 -157 0
-1228 -192 -17 -157 0
-1228 -192 -24 -157 0
-1228 -192 -52 -178 0
-1228 -192 -59 -178 0
-1228 -192 -66 -178 0
-1228 -192 -87 -199 0
-1228 -192 -94 -199 0
-1228 -192 -101 -199 0
-1228 -192 -108 -199 0
-1228 -192 283 409 535 304 430 556 0
-1228 -192 283 409 535 325 451 577 0
-1228 -192 304 430 556 325 451 577 0
-1228 -199 130 0
-1228 -199 228 0
-1228 -199 -115 0
-1228 -199 -10 -164 0
-1228 -199 -17 -164 0
-1228 -199 -24 -164 0
-1228 -199 -52 -185 0
-1228 -199 -59 -185 0
-1228 -199 -66 -185 0
-1228 -199 -87 -206 0
-1228 -199 -94 -206 0
-1228 -199 -101 -206 0
-1228 -199 -108 -206 0
-1228 -199 290 416 542 311 437 563 0
-1228 -199 290 416 542 332 458 584 0
-1228 -199 311 437 563 332 458 584 0
-1228 -129 -192 -220 0
-1228 -129 -199 -227 0
-1234 255 0
-1234 -206 0
-1234 -192 137 0
-1234 -192 221 0
-1234 -192 -87 0
-1234 -192 -17 -157 0
-1234 -192 -24 -157 0
-1234 -192 -31 -157 0
-1234 -192 -59 -178 0
-1234 -192 -66 -178 0
-1234 -192 -73 -178 0
-1234 -192 -94 -199 0
-1234 -192 -101 -199 0
-1234 -192 -108 -199 0
-1234 -192 -115 -199 0
-1234 -192 304 430 556 325 451 577 0
-1234 -192 304 430 556 346 472 598 0
-1234 -192 325 451 577 346 472 598 0
-1234 -199 137 0
-1234 -199 228 0
-1234 -199 -87 0
-1234 -199 -17 -164 0
-1234 -199 -24 -164 0
-1234 -199 -31 -164 0
-1234 -199 -59 -185 0
-1234 -199 -66 -185 0
-1234 -199 -73 -185 0
-1234 -199 -94 -206 0
-1234 -199 -101 -206 0
-1234 -199 -108 -206 0
-1234 -199 -115 -206 0
-1234 -199 311 437 563 332 458 584 0
-1234 -199 311 437 563 353 479 605 0
-1234 -199 332 458 584 353 479 605 0
-1234 -136 -192 -220 0
-1234 -136 -199 -227 0
-1240 255 0
-1240 -206 0
-1240 -192 144 0
-1240 -192 221 0
-1240 -192 -87 0
-1240 -192 -94 0
-1240 -192 -24 -157 0
-1240 -192 -31 -157 0
-1240 -192 -38 -157 0
-1240 -192 -66 -178 0
-1240 -192 -73 -178 0
-1240 -192 -80 -178 0
-1240 -192 -101 -199 0
-1240 -192 -108 -199 0
-1240 -192 -115 -199 0
-1240 -192 325 451 577 346 472 598 0
-1240 -192 325 451 577 367 493 619 0
-1240 -192 346 472 598 367 493 619 0
-1240 -199 144 0
-1240 -199 228 0
-1240 -199 -87 0
-1240 -199 -94 0
-1240 -199 -24 -164 0
-1240 -199 -31 -164 0
-1240 -199 -38 -164 0
-1240 -199 -66 -185 0
-1240 -199 -73 -185 0
-1240 -199 -80 -185 0
-1240 -199 -101 -206 0
-1240 -199 -108 -206 0
-1240 -199 -115 -206 0
-1240 -199 332 458 584 353 479 605 0
-1240 -199 332 458 584 374 500 626 0
-1240 -199 353 479 605 374 500 626 0
-1240 -143 -192 -220 0
-1240 -143 -199 -227 0
-1246 255 0
-1246 123 0
-1246 214 0
-1246 -122 -213 0
-1246 -3 -150 0
-1246 -10 -150 0
-1246 -17 -150 0
-1246 -45 -171 0
-1246 -52 -171 0
-1246 -59 -171 0
-1246 -87 -192 0
-1246 -94 -192 0
-1246 -101 -192 0
-1252 255 0
-1252 130 0
-1252 214 0
-1252 -129 -213 0
-1252 -10 -150 0
-1252 -17 -150 0
-1252 -24 -150 0
-1252 -52 -171 0
-1252 -59 -171 0
-1252 -66 -171 0
-1252 -87 -192 0
-1252 -94 -192 0
-1252 -101 -192 0
-1252 -108 -192 0
-1258 255 0
-1258 137 0
-1258 214 0
-1258 -136 -213 0
-1258 -17 -150 0
-1258 -24 -150 0
-1258 -31 -150 0
-1258 -59 -171 0
-1258 -66 -171 0
-1258 -73 -171 0
-1258 -94 -192 0
-1258 -101 -192 0
-1258 -108 -192 0
-1258 -115 -192 0
-1264 255 0
-1264 144 0
-1264 214 0
-1264 -143 -213 0
-1264 -24 -150 0
-1264 -31 -150 0
-1264 -38 -150 0
-1264 -66 -171 0
-1264 -73 -171 0
-1264 -80 -171 0
-1264 -101 -192 0
-1264 -108 -192 0
-1264 -115 -192 0
767 773 779 785 791 797 803 809 815 821 827 833 839 845 851 857 863 869 875 881 887 893 899 905 911 917 923 929 935 941 947 953 959 965 971 977 983 989 995 1001 1007 1013 1019 1025 1031 1037 1043 1049 1055 1061 1067 1073 1079 1085 1091 1097 1103 1109 1115 1121 1127 1133 1139 1145 1151 1157 1163 1169 1175 1181 1187 1193 1199 1205 1211 1217 1223 1229 1235 1241 1247 1253 1259 1265 0
-767 -773 0
-767 -779 0
-767 -785 0
-767 -791 0
-767 -797 0
-767 -803 0
-767 -809 0
-767 -815 0
-767 -821 0
-767 -827 0
-767 -833 0
-767 -839 0
-767 -845 0
-767 -851 0
-767 -857 0
-767 -863 0
-767 -869 0
-767 -875 0
-767 -881 0
-767 -887 0
-767 -893 0
-767 -899 0
-767 -905 0
-767 -911 0
-767 -917 0
-767 -923 0
-767 -929 0
-767 -935 0
-767 -941 0
-767 -947 0
-767 -953 0
-767 -959 0
-767 -965 0
-767 -971 0
-767 -977 0
-767 -983 0
-767 -989 0
-767 -995 0
-767 -1001 0
-767 -1007 0
-767 -1013 0
-767 -1019 0
-767 -1025 0
-767 -1031 0
-767 -1037 0
-767 -1043 0
-767 -1049 0
-767 -1055 0
-767 -1061 0
-767 -1067 0
-767 -1073 0
-767 -1079 0
-767 -1085 0
-767 -1091 0
-767 -1097 0
-767 -1103 0
-767 -1109 0
-767 -1115 0
-767 -1121 0
-767 -1127 0
-767 -1133 0
-767 -1139 0
-767 -1145 0
-767 -1151 0
-767 -1157 0
-767 -1163 0
-767 -1169 0
-767 -1175 0
-767 -1181 0
-767 -1187 0
-767 -1193 0
-767 -1199 0
-767 -1205 0
-767 -1211 0
-767 -1217 0
-767 -1223 0
-767 -1229 0
-767 -1235 0
-767 -1241 0
-767 -1247 0
-767 -1253 0
-767 -1259 0
-767 -1265 0
-773 -779 0
-773 -785 0
-773 -791 0
-773 -797 0
-773 -803 0
-773 -809 0
-773 -815 0
-773 -821 0
-773 -827 0
-773 -833 0
-773 -839 0
-773 -845 0
-773 -851 0
-773 -857 0
-773 -863 0
-773 -869 0
-773 -875 0
-773 -881 0
-773 -887 0
-773 -893 0
-773 -899 0
-773 -905 0
-773 -911 0
-773 -917 0
-773 -923 0
-773 -929 0
-773 -935 0
-773 -941 0
-773 -947 0
-773 -953 0
-773 -959 0
-773 -965 0
-773 -971 0
-773 -977 0
-773 -983 0
-773 -989 0
-773 -995 0
-773 -1001 0
-773 -1007 0
-773 -1013 0
-773 -1019 0
-773 -1025 0
-773 -1031 0
-773 -1037 0
-773 -1043 0
-773 -1049 0
-773 -1055 0
-773 -1061 0
-773 -1067 0
-773 -1073 0
-773 -1079 0
-773 -1085 0
-773 -1091 0
-773 -1097 0
-773 -1103 0
-773 -1109 0
-773 -1115 0
-773 -1121 0
-773 -1127 0
-773 -1133 0
-773 -1139 0
-773 -1145 0
-773 -1151 0
-773 -1157 0
-773 -1163 0
-773 -1169 0
-773 -1175 0
-773 -1181 0
-773 -1187 0
-773 -1193 0
-773 -1199 0
-773 -1205 0
-773 -1211 0
-773 -1217 0
-773 -1223 0
-773 -1229 0
-773 -1235 0
-773 -1241 0
-773 -1247 0
-773 -1253 0
-773 -1259 0
-773 -1265 0
-779 -785 0
-779 -791 0
-779 -797 0
-779 -803 0
-779 -809 0
-779 -815 0
-779 -821 0
-779 -827 0
-779 -833 0
-779 -839 0
-779 -845 0
-779 -851 0
-779 -857 0
-779 -863 0
-779 -869 0
-779 -875 0
-779 -881 0
-779 -887 0
-779 -893 0
-779 -899 0
-779 -905 0
-779 -911 0
-779 -917 0
-779 -923 0
-779 -929 0
-779 -935 0
-779 -941 0
-779 -947 0
-779 -953 0
-779 -959 0
-779 -965 0
-779 -971 0
-779 -977 0
-779 -983 0
-779 -989 0
-779 -995 0
-779 -1001 0
-779 -1007 0
-779 -1013 0
-779 -1019 0
-779 -1025 0
-779 -1031 0
-779 -1037 0
-779 -1043 0
-779 -1049 0
-779 -1055 0
-779 -1061 0
-779 -1067 0
-779 -1073 0
-779 -1079 0
-779 -1085 0
-779 -1091 0
-779 -1097 0
-779 -1103 0
-779 -1109 0
-779 -1115 0
-779 -1121 0
-779 -1127 0
-779 -1133 0
-779 -1139 0
-779 -1145 0
-779 -1151 0
-779 -1157 0
-779 -1163 0
-779 -1169 0
-779 -1175 0
-779 -1181 0
-779 -1187 0
-779 -1193 0
-779 -1199 0
-779 -1205 0
-779 -1211 0
-779 -1217 0
-779 -1223 0
-779 -1229 0
-779 -1235 0
-779 -1241 0
-779 -1247 0
-779 -1253 0
-779 -1259 0
-779 -1265 0
-785 -791 0
-785 -797 0
-785 -803 0
-785 -809 0
-785 -815 0
-785 -821 0
-785 -827 0
-785 -833 0
-785 -839 0
-785 -845 0
-785 -851 0
-785 -857 0
-785 -863 0
-785 -869 0
-785 -875 0
-785 -881 0
-785 -887 0
-785 -893 0
-785 -899 0
-785 -905 0
-785 -911 0
-785 -917 0
-785 -923 0
-785 -929 0
-785 -935 0
-785 -941 0
-785 -947 0
-785 -953 0
-785 -959 0
-785 -965 0
-785 -971 0
-785 -977 0
-785 -983 0
-785 -989 0
-785 -995 0
-785 -1001 0
-785 -1007 0
-785 -1013 0
-785 -1019 0
-785 -1025 0
-785 -1031 0
-785 -1037 0
-785 -1043 0
-785 -1049 0
-785 -1055 0
-785 -1061 0
-785 -1067 0
-785 -1073 0
-785 -1079 0
-785 -1085 0
-785 -1091 0
-785 -1097 0
-785 -1103 0
-785 -1109 0
-785 -1115 0
-785 -1121 0
-785 -1127 0
-785 -1133 0
-785 -1139 0
-785 -1145 0
-785 -1151 0
-785 -1157 0
-785 -1163 0
-785 -1169 0
-785 -1175 0
-785 -1181 0
-785 -1187 0
-785 -1193 0
-785 -1199 0
-785 -1205 0
-785 -1211 0
-785 -1217 0
-785 -1223 0
-785 -1229 0
-785 -1235 0
-785 -1241 0
-785 -1247 0
-785 -1253 0
-785 -1259 0
-785 -1265 0
-791 -797 0
-791 -803 0
-791 -809 0
-791 -815 0
-791 -821 0
-791 -827 0
-791 -833 0
-791 -839 0
-791 -845 0
-791 -851 0
-791 -857 0
-791 -863 0
-791 -869 0
-791 -875 0
-791 -881 0
-791 -887 0
-791 -893 0
-791 -899 0
-791 -905 0
-791 -911 0
-791 -917 0
-791 -923 0
-791 -929 0
-791 -935 0
-791 -941 0
-791 -947 0
-791 -953 0
-791 -959 0
-791 -965 0
-791 -971 0
-791 -977 0
-791 -983 0
-791 -989 0
-791 -995 0
-791 -1001 0
-791 -1007 0
-791 -1013 0
-791 -1019 0
-791 -1025 0
-791 -1031 0
-791 -1037 0
-791 -1043 0
-791 -1049 0
-791 -1055 0
-791 -1061 0
-791 -1067 0
-791 -1073 0
-791 -1079 0
-791 -1085 0
-791 -1091 0
-791 -1097 0
-791 -1103 0
-791 -1109 0
-791 -1115 0
-791 -1121 0
-791 -1127 0
-791 -1133 0
-791 -1139 0
-791 -1145 0
-791 -1151 0
-791 -1157 0
-791 -1163 0
-791 -1169 0
-791 -1175 0
-791 -1181 0
-791 -1187 0
-791 -1193 0
-791 -1199 0
-791 -1205 0
-791 -1211 0
-791 -1217 0
-791 -1223 0
-791 -1229 0
-791 -1235 0
-791 -1241 0
-791 -1247 0
-791 -1253 0
-791 -1259 0
-791 -1265 0
-797 -803 0
-797 -809 0
-797 -815 0
-797 -821 0
-797 -827 0
-797 -833 0
-797 -839 0
-797 -845 0
-797 -851 0
-797 -857 0
-797 -863 0
-797 -869 0
-797 -875 0
-797 -881 0
-797 -887 0
-797 -893 0
-797 -899 0
-797 -905 0
-797 -911 0
-797 -917 0
-797 -923 0
-797 -929 0
-797 -935 0
-797 -941 0
-797 -947 0
-797 -953 0
-797 -959 0
-797 -965 0
-797 -971 0
-797 -977 0
-797 -983 0
-797 -989 0
-797 -995 0
-797 -1001 0
-797 -1007 0
-797 -1013 0
-797 -1019 0
-797 -1025 0
-797 -1031 0
-797 -1037 0
-797 -1043 0
-797 -1049 0
-797 -1055 0
-797 -1061 0
-797 -1067 0
-797 -1073 0
-797 -1079 0
-797 -1085 0
-797 -1091 0
-797 -1097 0
-797 -1103 0
-797 -1109 0
-797 -1115 0
-797 -1121 0
-797 -1127 0
-797 -1133 0
-797 -1139 0
-797 -1145 0
-797 -1151 0
-797 -1157 0
-797 -1163 0
-797 -1169 0
-797 -1175 0
-797 -1181 0
-797 -1187 0
-797 -1193 0
-797 -1199 0
-797 -1205 0
-797 -1211 0
-797 -1217 0
-797 -1223 0
-797 -1229 0
-797 -1235 0
-797 -1241 0
-797 -1247 0
-797 -1253 0
-797 -1259 0
-797 -1265 0
-803 -809 0
-803 -815 0
-803 -821 0
-803 -827 0
-803 -833 0
-803 -839 0
-803 -845 0
-803 -851 0
-803 -857 0
-803 -863 0
-803 -869 0
-803 -875 0
-803 -881 0
-803 -887 0
-803 -893 0
-803 -899 0
-803 -905 0
-803 -911 0
-803 -917 0
-803 -923 0
-803 -929 0
-803 -935 0
-803 -941 0
-803 -947 0
-803 -953 0
-803 -959 0
-803 -965 0
-803 -971 0
-803 -977 0
-803 -983 0
-803 -989 0
-803 -995 0
-803 -1001 0
-803 -1007 0
-803 -1013 0
-803 -1019 0
-803 -1025 0
-803 -1031 0
-803 -1037 0
-803 -1043 0
-803 -1049 0
-803 -1055 0
-803 -1061 0
-803 -1067 0
-803 -1073 0
-803 -1079 0
-803 -1085 0
-803 -1091 0
-803 -1097 0
-803 -1103 0
-803 -1109 0
-803 -1115 0
-803 -1121 0
-803 -1127 0
-803 -1133 0
-803 -1139 0
-803 -1145 0
-803 -1151 0
-803 -1157 0
-803 -1163 0
-803 -1169 0
-803 -1175 0
-803 -1181 0
-803 -1187 0
-803 -1193 0
-803 -1199 0
-803 -1205 0
-803 -1211 0
-803 -1217 0
-803 -1223 0
-803 -1229 0
-803 -1235 0
-803 -1241 0
-803 -1247 0
-803 -1253 0
-803 -1259 0
-803 -1265 0
-809 -815 0
-809 -821 0
-809 -827 0
-809 -833 0
-809 -839 0
-809 -845 0
-809 -851 0
-809 -857 0
-809 -863 0
-809 -869 0
-809 -875 0
-809 -881 0
-809 -887 0
-809 -893 0
-809 -899 0
-809 -905 0
-809 -911 0
-809 -917 0
-809 -923 0
-809 -929 0
-809 -935 0
-809 -941 0
-809 -947 0
-809 -953 0
-809 -959 0
-809 -965 0
-809 -971 0
-809 -977 0
-809 -983 0
-809 -989 0
-809 -995 0
-809 -1001 0
-809 -1007 0
-809 -1013 0
-809 -1019 0
-809 -1025 0
-809 -1031 0
-809 -1037 0
-809 -1043 0
-809 -1049 0
-809 -1055 0
-809 -1061 0
-809 -1067 0
-809 -1073 0
-809 -1079 0
-809 -1085 0
-809 -1091 0
-809 -1097 0
-809 -1103 0
-809 -1109 0
-809 -1115 0
-809 -1121 0
-809 -1127 0
-809 -1133 0
-809 -1139 0
-809 -1145 0
-809 -1151 0
-809 -1157 0
-809 -1163 0
-809 -1169 0
-809 -1175 0
-809 -1181 0
-809 -1187 0
-809 -1193 0
-809 -1199 0
-809 -1205 0
-809 -1211 0
-809 -1217 0
-809 -1223 0
-809 -1229 0
-809 -1235 0
-809 -1241 0
-809 -1247 0
-809 -1253 0
-809 -1259 0
-809 -1265 0
-815 -821 0
-815 -827 0
-815 -833 0
-815 -839 0
-815 -845 0
-815 -851 0
-815 -857 0
-815 -863 0
-815 -869 0
-815 -875 0
-815 -881 0
-815 -887 0
-815 -893 0
-815 -899 0
-815 -905 0
-815 -911 0
-815 -917 0
-815 -923 0
-815 -929 0
-815 -935 0
-815 -941 0
-815 -947 0
-815 -953 0
-815 -959 0
-815 -965 0
-815 -971 0
-815 -977 0
-815 -983 0
-815 -989 0
-815 -995 0
-815 -1001 0
-815 -1007 0
-815 -1013 0
-815 -1019 0
-815 -1025 0
-815 -1031 0
-815 -1037 0
-815 -1043 0
-815 -1049 0
-815 -1055 0
-815 -1061 0
-815 -1067 0
-815 -1073 0
-815 -1079 0
-815 -1085 0
-815 -1091 0
-815 -1097 0
-815 -1103 0
-815 -1109 0
-815 -1115 0
-815 -1121 0
-815 -1127 0
-815 -1133 0
-815 -1139 0
-815 -1145 0
-815 -1151 0
-815 -1157 0
-815 -1163 0
-815 -1169 0
-815 -1175 0
-815 -1181 0
-815 -1187 0
-815 -1193 0
-815 -1199 0
-815 -1205 0
-815 -1211 0
-815 -1217 0
-815 -1223 0
-815 -1229 0
-815 -1235 0
-815 -1241 0
-815 -1247 0
-815 -1253 0
-815 -1259 0
-815 -1265 0
-821 -827 0
-821 -833 0
-821 -839 0
-821 -845 0
-821 -851 0
-821 -857 0
-821 -863 0
-821 -869 0
-821 -875 0
-821 -881 0
-821 -887 0
-821 -893 0
-821 -899 0
-821 -905 0
-821 -911 0
-821 -917 0
-821 -923 0
-821 -929 0
-821 -935 0
-821 -941 0
-821 -947 0
-821 -953 0
-821 -959 0
-821 -965 0
-821 -971 0
-821 -977 0
-821 -983 0
-821 -989 0
-821 -995 0
-821 -1001 0
-821 -1007 0
-821 -1013 0
-821 -1019 0
-821 -1025 0
-821 -1031 0
-821 -1037 0
-821 -1043 0
-821 -1049 0
-821 -1055 0
-821 -1061 0
-821 -1067 0
-821 -1073 0
-821 -1079 0
-821 -1085 0
-821 -1091 0
-821 -1097 0
-821 -1103 0
-821 -1109 0
-821 -1115 0
-821 -1121 0
-821 -1127 0
-821 -1133 0
-821 -1139 0
-821 -1145 0
-821 -1151 0
-821 -1157 0
-821 -1163 0
-821 -1169 0
-821 -1175 0
-821 -1181 0
-821 -1187 0
-821 -1193 0
-821 -1199 0
-821 -1205 0
-821 -1211 0
-821 -1217 0
-821 -1223 0
-821 -1229 0
-821 -1235 0
-821 -1241 0
-821 -1247 0
-821 -1253 0
-821 -1259 0
-821 -1265 0
-827 -833 0
-827 -839 0
-827 -845 0
-827 -851 0
-827 -857 0
-827 -863 0
-827 -869 0
-827 -875 0
-827 -881 0
-827 -887 0
-827 -893 0
-827 -899 0
-827 -905 0
-827 -911 0
-827 -917 0
-827 -923 0
-827 -929 0
-827 -935 0
-827 -941 0
-827 -947 0
-827 -953 0
-827 -959 0
-827 -965 0
-827 -971 0
-827 -977 0
-827 -983 0
-827 -989 0
-827 -995 0
-827 -1001 0
-827 -1007 0
-827 -1013 0
-827 -1019 0
-827 -1025 0
-827 -1031 0
-827 -1037 0
-827 -1043 0
-827 -1049 0
-827 -1055 0
-827 -1061 0
-827 -1067 0
-827 -1073 0
-827 -1079 0
-827 -1085 0
-827 -1091 0
-827 -1097 0
-827 -1103 0
-827 -1109 0
-827 -1115 0
-827 -1121 0
-827 -1127 0
-827 -1133 0
-827 -1139 0
-827 -1145 0
-827 -1151 0
-827 -1157 0
-827 -1163 0
-827 -1169 0
-827 -1175 0
-827 -1181 0
-827 -1187 0
-827 -1193 0
-827 -1199 0
-827 -1205 0
-827 -1211 0
-827 -1217 0
-827 -1223 0
-827 -1229 0
-827 -1235 0
-827 -1241 0
-827 -1247 0
-827 -1253 0
-827 -1259 0
-827 -1265 0
-833 -839 0
-833 -845 0
-833 -851 0
-833 -857 0
-833 -863 0
-833 -869 0
-833 -875 0
-833 -881 0
-833 -887 0
-833 -893 0
-833 -899 0
-833 -905 0
-833 -911 0
-833 -917 0
-833 -923 0
-833 -929 0
-833 -935 0
-833 -941 0
-833 -947 0
-833 -953 0
-833 -959 0
-833 -965 0
-833 -971 0
-833 -977 0
-833 -983 0
-833 -989 0
-833 -995 0
-833 -1001 0
-833 -1007 0
-833 -1013 0
-833 -1019 0
-833 -1025 0
-833 -1031 0
-833 -1037 0
-833 -1043 0
-833 -1049 0
-833 -1055 0
-833 -1061 0
-833 -1067 0
-833 -1073 0
-833 -1079 0
-833 -1085 0
-833 -1091 0
-833 -1097 0
-833 -1103 0
-833 -1109 0
-833 -1115 0
-833 -1121 0
-833 -1127 0
-833 -1133 0
-833 -1139 0
-833 -1145 0
-833 -1151 0
-833 -1157 0
-833 -1163 0
-833 -1169 0
-833 -1175 0
-833 -1181 0
-833 -1187 0
-833 -1193 0
-833 -1199 0
-833 -1205 0
-833 -1211 0
-833 -1217 0
-833 -1223 0
-833 -1229 0
-833 -1235 0
-833 -1241 0
-833 -1247 0
-833 -1253 0
-833 -1259 0
-833 -1265 0
-839 -845 0
-839 -851 0
-839 -857 0
-839 -863 0
-839 -869 0
-839 -875 0
-839 -881 0
-839 -887 0
-839 -893 0
-839 -899 0
-839 -905 0
-839 -911 0
-839 -917 0
-839 -923 0
-839 -929 0
-839 -935 0
-839 -941 0
-839 -947 0
-839 -953 0
-839 -959 0
-839 -965 0
-839 -971 0
-839 -977 0
-839 -983 0
-839 -989 0
-839 -995 0
-839 -1001 0
-839 -1007 0
-839 -1013 0
-839 -1019 0
-839 -1025 0
-839 -1031 0
-839 -1037 0
-839 -1043 0
-839 -1049 0
-839 -1055 0
-839 -1061 0
-839 -1067 0
-839 -1073 0
-839 -1079 0
-839 -1085 0
-839 -1091 0
-839 -1097 0
-839 -1103 0
-839 -1109 0
-839 -1115 0
-839 -1121 0
-839 -1127 0
-839 -1133 0
-839 -1139 0
-839 -1145 0
-839 -1151 0
-839 -1157 0
-839 -1163 0
-839 -1169 0
-839 -1175 0
-839 -1181 0
-839 -1187 0
-839 -1193 0
-839 -1199 0
-839 -1205 0
-839 -1211 0
-839 -1217 0
-839 -1223 0
-839 -1229 0
-839 -1235 0
-839 -1241 0
-839 -1247 0
-839 -1253 0
-839 -1259 0
-839 -1265 0
-845 -851 0
-845 -857 0
-845 -863 0
-845 -869 0
-845 -875 0
-845 -881 0
-845 -887 0
-845 -893 0
-845 -899 0
-845 -905 0
-845 -911 0
-845 -917 0
-845 -923 0
-845 -929 0
-845 -935 0
-845 -941 0
-845 -947 0
-845 -953 0
-845 -959 0
-845 -965 0
-845 -971 0
-845 -977 0
-845 -983 0
-845 -989 0
-845 -995 0
-845 -1001 0
-845 -1007 0
-845 -1013 0
-845 -1019 0
-845 -1025 0
-845 -1031 0
-845 -1037 0
-845 -1043 0
-845 -1049 0
-845 -1055 0
-845 -1061 0
-845 -1067 0
-845 -1073 0
-845 -1079 0
-845 -1085 0
-845 -1091 0
-845 -1097 0
-845 -1103 0
-845 -1109 0
-845 -1115 0
-845 -1121 0
-845 -1127 0
-845 -1133 0
-845 -1139 0
-845 -1145 0
-845 -1151 0
-845 -1157 0
-845 -1163 0
-845 -1169 0
-845 -1175 0
-845 -1181 0
-845 -1187 0
-845 -1193 0
-845 -1199 0
-845 -1205 0
-845 -1211 0
-845 -1217 0
-845 -1223 0
-845 -1229 0
-845 -1235 0
-845 -1241 0
-845 -1247 0
-845 -1253 0
-845 -1259 0
-845 -1265 0
-851 -857 0
-851 -863 0
-851 -869 0
-851 -875 0
-851 -881 0
-851 -887 0
-851 -893 0
-851 -899 0
-851 -905 0
-851 -911 0
-851 -917 0
-851 -923 0
-851 -929 0
-851 -935 0
-851 -941 0
-851 -947 0
-851 -953 0
-851 -959 0
-851 -965 0
-851 -971 0
-851 -977 0
-851 -983 0
-851 -989 0
-851 -995 0
-851 -1001 0
-851 -1007 0
-851 -1013 0
-851 -1019 0
-851 -1025 0
-851 -1031 0
-851 -1037 0
-851 -1043 0
-851 -1049 0
-851 -1055 0
-851 -1061 0
-851 -1067 0
-851 -1073 0
-851 -1079 0
-851 -1085 0
-851 -1091 0
-851 -1097 0
-851 -1103 0
-851 -1109 0
-851 -1115 0
-851 -1121 0
-851 -1127 0
-851 -1133 0
-851 -1139 0
-851 -1145 0
-851 -1151 0
-851 -1157 0
-851 -1163 0
-851 -1169 0
-851 -1175 0
-851 -1181 0
-851 -1187 0
-851 -1193 0
-851 -1199 0
-851 -1205 0
-851 -1211 0
-851 -1217 0
-851 -1223 0
-851 -1229 0
-851 -1235 0
-851 -1241 0
-851 -1247 0
-851 -1253 0
-851 -1259 0
-851 -1265 0
-857 -863 0
-857 -869 0
-857 -875 0
-857 -881 0
-857 -887 0
-857 -893 0
-857 -899 0
-857 -905 0
-857 -911 0
-857 -917 0
-857 -923 0
-857 -929 0
-857 -935 0
-857 -941 0
-857 -947 0
-857 -953 0
-857 -959 0
-857 -965 0
-857 -971 0
-857 -977 0
-857 -983 0
-857 -989 0
-857 -995 0
-857 -1001 0
-857 -1007 0
-857 -1013 0
-857 -1019 0
-857 -1025 0
-857 -1031 0
-857 -1037 0
-857 -1043 0
-857 -1049 0
-857 -1055 0
-857 -1061 0
-857 -1067 0
-857 -1073 0
-857 -1079 0
-857 -1085 0
-857 -1091 0
-857 -1097 0
-857 -1103 0
-857 -1109 0
-857 -1115 0
-857 -1121 0
-857 -1127 0
-857 -1133 0
-857 -1139 0
-857 -1145 0
-857 -1151 0
-857 -1157 0
-857 -1163 0
-857 -1169 0
-857 -1175 0
-857 -1181 0
-857 -1187 0
-857 -1193 0
-857 -1199 0
-857 -1205 0
-857 -1211 0
-857 -1217 0
-857 -1223 0
-857 -1229 0
-857 -1235 0
-857 -1241 0
-857 -1247 0
-857 -1253 0
-857 -1259 0
-857 -1265 0
-863 -869 0
-863 -875 0
-863 -881 0
-863 -887 0
-863 -893 0
-863 -899 0
-863 -905 0
-863 -911 0
-863 -917 0
-863 -923 0
-863 -929 0
-863 -935 0
-863 -941 0
-863 -947 0
-863 -953 0
-863 -959 0
-863 -965 0
-863 -971 0
-863 -977 0
-863 -983 0
-863 -989 0
-863 -995 0
-863 -1001 0
-863 -1007 0
-863 -1013 0
-863 -1019 0
-863 -1025 0
-863 -1031 0
-863 -1037 0
-863 -1043 0
-863 -1049 0
-863 -1055 0
-863 -1061 0
-863 -1067 0
-863 -1073 0
-863 -1079 0
-863 -1085 0
-863 -1091 0
-863 -1097 0
-863 -1103 0
-863 -1109 0
-863 -1115 0
-863 -1121 0
-863 -1127 0
-863 -1133 0
-863 -1139 0
-863 -1145 0
-863 -1151 0
-863 -1157 0
-863 -1163 0
-863 -1169 0
-863 -1175 0
-863 -1181 0
-863 -1187 0
-863 -1193 0
-863 -1199 0
-863 -1205 0
-863 -1211 0
-863 -1217 0
-863 -1223 0
-863 -1229 0
-863 -1235 0
-863 -1241 0
-863 -1247 0
-863 -1253 0
-863 -1259 0
-863 -1265 0
-869 -875 0
-869 -881 0
-869 -887 0
-869 -893 0
-869 -899 0
-869 -905 0
-869 -911 0
-869 -917 0
-869 -923 0
-869 -929 0
-869 -935 0
-869 -941 0
-869 -947 0
-869 -953 0
-869 -959 0
-869 -965 0
-869 -971 0
-869 -977 0
-869 -983 0
-869 -989 0
-869 -995 0
-869 -1001 0
-869 -1007 0
-869 -1013 0
-869 -1019 0
-869 -1025 0
-869 -1031 0
-869 -1037 0
-869 -1043 0
-869 -1049 0
-869 -1055 0
-869 -1061 0
-869 -1067 0
-869 -1073 0
-869 -1079 0
-869 -1085 0
-869 -1091 0
-869 -1097 0
-869 -1103 0
-869 -1109 0
-869 -1115 0
-869 -1121 0
-869 -1127 0
-869 -1133 0
-869 -1139 0
-869 -1145 0
-869 -1151 0
-869 -1157 0
-869 -1163 0
-869 -1169 0
-869 -1175 0
-869 -1181 0
-869 -1187 0
-869 -1193 0
-869 -1199 0
-869 -1205 0
-869 -1211 0
-869 -1217 0
-869 -1223 0
-869 -1229 0
-869 -1235 0
-869 -1241 0
-869 -1247 0
-869 -1253 0
-869 -1259 0
-869 -1265 0
-875 -881 0
-875 -887 0
-875 -893 0
-875 -899 0
-875 -905 0
-875 -911 0
-875 -917 0
-875 -923 0
-875 -929 0
-875 -935 0
-875 -941 0
-875 -947 0
-875 -953 0
-875 -959 0
-875 -965 0
-875 -971 0
-875 -977 0
-875 -983 0
-875 -989 0
-875 -995 0
-875 -1001 0
-875 -1007 0
-875 -1013 0
-875 -1019 0
-875 -1025 0
-875 -1031 0
-875 -1037 0
-875 -1043 0
-875 -1049 0
-875 -1055 0
-875 -1061 0
-875 -1067 0
-875 -1073 0
-875 -1079 0
-875 -1085 0
-875 -1091 0
-875 -1097 0
-875 -1103 0
-875 -1109 0
-875 -1115 0
-875 -1121 0
-875 -1127 0
-875 -1133 0
-875 -1139 0
-875 -1145 0
-875 -1151 0
-875 -1157 0
-875 -1163 0
-875 -1169 0
-875 -1175 0
-875 -1181 0
-875 -1187 0
-875 -1193 0
-875 -1199 0
-875 -1205 0
-875 -1211 0
-875 -1217 0
-875 -1223 0
-875 -1229 0
-875 -1235 0
-875 -1241 0
-875 -1247 0
-875 -1253 0
-875 -1259 0
-875 -1265 0
-881 -887 0
-881 -893 0
-881 -899 0
-881 -905 0
-881 -911 0
-881 -917 0
-881 -923 0
-881 -929 0
-881 -935 0
-881 -941 0
-881 -947 0
-881 -953 0
-881 -959 0
-881 -965 0
-881 -971 0
-881 -977 0
-881 -983 0
-881 -989 0
-881 -995 0
-881 -1001 0
-881 -1007 0
-881 -1013 0
-881 -1019 0
-881 -1025 0
-881 -1031 0
-881 -1037 0
-881 -1043 0
-881 -1049 0
-881 -1055 0
-881 -1061 0
-881 -1067 0
-881 -1073 0
-881 -1079 0
-881 -1085 0
-881 -1091 0
-881 -1097 0
-881 -1103 0
-881 -1109 0
-881 -1115 0
-881 -1121 0
-881 -1127 0
-881 -1133 0
-881 -1139 0
-881 -1145 0
-881 -1151 0
-881 -1157 0
-881 -1163 0
-881 -1169 0
-881 -1175 0
-881 -1181 0
-881 -1187 0
-881 -1193 0
-881 -1199 0
-881 -1205 0
-881 -1211 0
-881 -1217 0
-881 -1223 0
-881 -1229 0
-881 -1235 0
-881 -1241 0
-881 -1247 0
-881 -1253 0
-881 -1259 0
-881 -1265 0
-887 -893 0
-887 -899 0
-887 -905 0
-887 -911 0
-887 -917 0
-887 -923 0
-887 -929 0
-887 -935 0
-887 -941 0
-887 -947 0
-887 -953 0
-887 -959 0
-887 -965 0
-887 -971 0
-887 -977 0
-887 -983 0
-887 -989 0
-887 -995 0
-887 -1001 0
-887 -1007 0
-887 -1013 0
-887 -1019 0
-887 -1025 0
-887 -1031 0
-887 -1037 0
-887 -1043 0
-887 -1049 0
-887 -1055 0
-887 -1061 0
-887 -1067 0
-887 -1073 0
-887 -1079 0
-887 -1085 0
-887 -1091 0
-887 -1097 0
-887 -1103 0
-887 -1109 0
-887 -1115 0
-887 -1121 0
-887 -1127 0
-887 -1133 0
-887 -1139 0
-887 -1145 0
-887 -1151 0
-887 -1157 0
-887 -1163 0
-887 -1169 0
-887 -1175 0
-887 -1181 0
-887 -1187 0
-887 -1193 0
-887 -1199 0
-887 -1205 0
-887 -1211 0
-887 -1217 0
-887 -1223 0
-887 -1229 0
-887 -1235 0
-887 -1241 0
-887 -1247 0
-887 -1253 0
-887 -1259 0
-887 -1265 0
-893 -899 0
-893 -905 0
-893 -911 0
-893 -917 0
-893 -923 0
-893 -929 0
-893 -935 0
-893 -941 0
-893 -947 0
-893 -953 0
-893 -959 0
-893 -965 0
-893 -971 0
-893 -977 0
-893 -983 0
-893 -989 0
-893 -995 0
-893 -1001 0
-893 -1007 0
-893 -1013 0
-893 -1019 0
-893 -1025 0
-893 -1031 0
-893 -1037 0
-893 -1043 0
-893 -1049 0
-893 -1055 0
-893 -1061 0
-893 -1067 0
-893 -1073 0
-893 -1079 0
-893 -1085 0
-893 -1091 0
-893 -1097 0
-893 -1103 0
-893 -1109 0
-893 -1115 0
-893 -1121 0
-893 -1127 0
-893 -1133 0
-893 -1139 0
-893 -1145 0
-893 -1151 0
-893 -1157 0
-893 -1163 0
-893 -1169 0
-893 -1175 0
-893 -1181 0
-893 -1187 0
-893 -1193 0
-893 -1199 0
-893 -1205 0
-893 -1211 0
-893 -1217 0
-893 -1223 0
-893 -1229 0
-893 -1235 0
-893 -1241 0
-893 -1247 0
-893 -1253 0
-893 -1259 0
-893 -1265 0
-899 -905 0
-899 -911 0
-899 -917 0
-899 -923 0
-899 -929 0
-899 -935 0
-899 -941 0
-899 -947 0
-899 -953 0
-899 -959 0
-899 -965 0
-899 -971 0
-899 -977 0
-899 -983 0
-899 -989 0
-899 -995 0
-899 -1001 0
-899 -1007 0
-899 -1013 0
-899 -1019 0
-899 -1025 0
-899 -1031 0
-899 -1037 0
-899 -1043 0
-899 -1049 0
-899 -1055 0
-899 -1061 0
-899 -1067 0
-899 -1073 0
-899 -1079 0
-899 -1085 0
-899 -1091 0
-899 -1097 0
-899 -1103 0
-899 -1109 0
-899 -1115 0
-899 -1121 0
-899 -1127 0
-899 -1133 0
-899 -1139 0
-899 -1145 0
-899 -1151 0
-899 -1157 0
-899 -1163 0
-899 -1169 0
-899 -1175 0
-899 -1181 0
-899 -1187 0
-899 -1193 0
-899 -1199 0
-899 -1205 0
-899 -1211 0
-899 -1217 0
-899 -1223 0
-899 -1229 0
-899 -1235 0
-899 -1241 0
-899 -1247 0
-899 -1253 0
-899 -1259 0
-899 -1265 0
-905 -911 0
-905 -917 0
-905 -923 0
-905 -929 0
-905 -935 0
-905 -941 0
-905 -947 0
-905 -953 0
-905 -959 0
-905 -965 0
-905 -971 0
-905 -977 0
-905 -983 0
-905 -989 0
-905 -995 0
-905 -1001 0
-905 -1007 0
-905 -1013 0
-905 -1019 0
-905 -1025 0
-905 -1031 0
-905 -1037 0
-905 -1043 0
-905 -1049 0
-905 -1055 0
-905 -1061 0
-905 -1067 0
-905 -1073 0
-905 -1079 0
-905 -1085 0
-905 -1091 0
-905 -1097 0
-905 -1103 0
-905 -1109 0
-905 -1115 0
-905 -1121 0
-905 -1127 0
-905 -1133 0
-905 -1139 0
-905 -1145 0
-905 -1151 0
-905 -1157 0
-905 -1163 0
-905 -1169 0
-905 -1175 0
-905 -1181 0
-905 -1187 0
-905 -1193 0
-905 -1199 0
-905 -1205 0
-905 -1211 0
-905 -1217 0
-905 -1223 0
-905 -1229 0
-905 -1235 0
-905 -1241 0
-905 -1247 0
-905 -1253 0
-905 -1259 0
-905 -1265 0
-911 -917 0
-911 -923 0
-911 -929 0
-911 -935 0
-911 -941 0
-911 -947 0
-911 -953 0
-911 -959 0
-911 -965 0
-911 -971 0
-911 -977 0
-911 -983 0
-911 -989 0
-911 -995 0
-911 -1001 0
-911 -1007 0
-911 -1013 0
-911 -1019 0
-911 -1025 0
-911 -1031 0
-911 -1037 0
-911 -1043 0
-911 -1049 0
-911 -1055 0
-911 -1061 0
-911 -1067 0
-911 -1073 0
-911 -1079 0
-911 -1085 0
-911 -1091 0
-911 -1097 0
-911 -1103 0
-911 -1109 0
-911 -1115 0
-911 -1121 0
-911 -1127 0
-911 -1133 0
-911 -1139 0
-911 -1145 0
-911 -1151 0
-911 -1157 0
-911 -1163 0
-911 -1169 0
-911 -1175 0
-911 -1181 0
-911 -1187 0
-911 -1193 0
-911 -1199 0
-911 -1205 0
-911 -1211 0
-911 -1217 0
-911 -1223 0
-911 -1229 0
-911 -1235 0
-911 -1241 0
-911 -1247 0
-911 -1253 0
-911 -1259 0
-911 -1265 0
-917 -923 0
-917 -929 0
-917 -935 0
-917 -941 0
-917 -947 0
-917 -953 0
-917 -959 0
-917 -965 0
-917 -971 0
-917 -977 0
-917 -983 0
-917 -989 0
-917 -995 0
-917 -1001 0
-917 -1007 0
-917 -1013 0
-917 -1019 0
-917 -1025 0
-917 -1031 0
-917 -1037 0
-917 -1043 0
-917 -1049 0
-917 -1055 0
-917 -1061 0
-917 -1067 0
-917 -1073 0
-917 -1079 0
-917 -1085 0
-917 -1091 0
-917 -1097 0
-917 -1103 0
-917 -1109 0
-917 -1115 0
-917 -1121 0
-917 -1127 0
-917 -1133 0
-917 -1139 0
-917 -1145 0
-917 -1151 0
-917 -1157 0
-917 -1163 0
-917 -1169 0
-917 -1175 0
-917 -1181 0
-917 -1187 0
-917 -1193 0
-917 -1199 0
-917 -1205 0
-917 -1211 0
-917 -1217 0
-917 -1223 0
-917 -1229 0
-917 -1235 0
-917 -1241 0
-917 -1247 0
-917 -1253 0
-917 -1259 0
-917 -1265 0
-923 -929 0
-923 -935 0
-923 -941 0
-923 -947 0
-923 -953 0
-923 -959 0
-923 -965 0
-923 -971 0
-923 -977 0
-923 -983 0
-923 -989 0
-923 -995 0
-923 -1001 0
-923 -1007 0
-923 -1013 0
-923 -1019 0
-923 -1025 0
-923 -1031 0
-923 -1037 0
-923 -1043 0
-923 -1049 0
-923 -1055 0
-923 -1061 0
-923 -1067 0
-923 -1073 0
-923 -1079 0
-923 -1085 0
-923 -1091 0
-923 -1097 0
-923 -1103 0
-923 -1109 0
-923 -1115 0
-923 -1121 0
-923 -1127 0
-923 -1133 0
-923 -1139 0
-923 -1145 0
-923 -1151 0
-923 -1157 0
-923 -1163 0
-923 -1169 0
-923 -1175 0
-923 -1181 0
-923 -1187 0
-923 -1193 0
-923 -1199 0
-923 -1205 0
-923 -1211 0
-923 -1217 0
-923 -1223 0
-923 -1229 0
-923 -1235 0
-923 -1241 0
-923 -1247 0
-923 -1253 0
-923 -1259 0
-923 -1265 0
-929 -935 0
-929 -941 0
-929 -947 0
-929 -953 0
-929 -959 0
-929 -965 0
-929 -971 0
-929 -977 0
-929 -983 0
-929 -989 0
-929 -995 0
-929 -1001 0
-929 -1007 0
-929 -1013 0
-929 -1019 0
-929 -1025 0
-929 -1031 0
-929 -1037 0
-929 -1043 0
-929 -1049 0
-929 -1055 0
-929 -1061 0
-929 -1067 0
-929 -1073 0
-929 -1079 0
-929 -1085 0
-929 -1091 0
-929 -1097 0
-929 -1103 0
-929 -1109 0
-929 -1115 0
-929 -1121 0
-929 -1127 0
-929 -1133 0
-929 -1139 0
-929 -1145 0
-929 -1151 0
-929 -1157 0
-929 -1163 0
-929 -1169 0
-929 -1175 0
-929 -1181 0
-929 -1187 0
-929 -1193 0
-929 -1199 0
-929 -1205 0
-929 -1211 0
-929 -1217 0
-929 -1223 0
-929 -1229 0
-929 -1235 0
-929 -1241 0
-929 -1247 0
-929 -1253 0
-929 -1259 0
-929 -1265 0
-935 -941 0
-935 -947 0
-935 -953 0
-935 -959 0
-935 -965 0
-935 -971 0
-935 -977 0
-935 -983 0
-935 -989 0
-935 -995 0
-935 -1001 0
-935 -1007 0
-935 -1013 0
-935 -1019 0
-935 -1025 0
-935 -1031 0
-935 -1037 0
-935 -1043 0
-935 -1049 0
-935 -1055 0
-935 -1061 0
-935 -1067 0
-935 -1073 0
-935 -1079 0
-935 -1085 0
-935 -1091 0
-935 -1097 0
-935 -1103 0
-935 -1109 0
-935 -1115 0
-935 -1121 0
-935 -1127 0
-935 -1133 0
-935 -1139 0
-935 -1145 0
-935 -1151 0
-935 -1157 0
-935 -1163 0
-935 -1169 0
-935 -1175 0
-935 -1181 0
-935 -1187 0
-935 -1193 0
-935 -1199 0
-935 -1205 0
-935 -1211 0
-935 -1217 0
-935 -1223 0
-935 -1229 0
-935 -1235 0
-935 -1241 0
-935 -1247 0
-935 -1253 0
-935 -1259 0
-935 -1265 0
-941 -947 0
-941 -953 0
-941 -959 0
-941 -965 0
-941 -971 0
-941 -977 0
-941 -983 0
-941 -989 0
-941 -995 0
-941 -1001 0
-941 -1007 0
-941 -1013 0
-941 -1019 0
-941 -1025 0
-941 -1031 0
-941 -1037 0
-941 -1043 0
-941 -1049 0
-941 -1055 0
-941 -1061 0
-941 -1067 0
-941 -1073 0
-941 -1079 0
-941 -1085 0
-941 -1091 0
-941 -1097 0
-941 -1103 0
-941 -1109 0
-941 -1115 0
-941 -1121 0
-941 -1127 0
-941 -1133 0
-941 -1139 0
-941 -1145 0
-941 -1151 0
-941 -1157 0
-941 -1163 0
-941 -1169 0
-941 -1175 0
-941 -1181 0
-941 -1187 0
-941 -1193 0
-941 -1199 0
-941 -1205 0
-941 -1211 0
-941 -1217 0
-941 -1223 0
-941 -1229 0
-941 -1235 0
-941 -1241 0
-941 -1247 0
-941 -1253 0
-941 -1259 0
-941 -1265 0
-947 -953 0
-947 -959 0
-947 -965 0
-947 -971 0
-947 -977 0
-947 -983 0
-947 -989 0
-947 -995 0
-947 -1001 0
-947 -1007 0
-947 -1013 0
-947 -1019 0
-947 -1025 0
-947 -1031 0
-947 -1037 0
-947 -1043 0
-947 -1049 0
-947 -1055 0
-947 -1061 0
-947 -1067 0
-947 -1073 0
-947 -1079 0
-947 -1085 0
-947 -1091 0
-947 -1097 0
-947 -1103 0
-947 -1109 0
-947 -1115 0
-947 -1121 0
-947 -1127 0
-947 -1133 0
-947 -1139 0
-947 -1145 0
-947 -1151 0
-947 -1157 0
-947 -1163 0
-947 -1169 0
-947 -1175 0
-947 -1181 0
-947 -1187 0
-947 -1193 0
-947 -1199 0
-947 -1205 0
-947 -1211 0
-947 -1217 0
-947 -1223 0
-947 -1229 0
-947 -1235 0
-947 -1241 0
-947 -1247 0
-947 -1253 0
-947 -1259 0
-947 -1265 0
-953 -959 0
-953 -965 0
-953 -971 0
-953 -977 0
-953 -983 0
-953 -989 0
-953 -995 0
-953 -1001 0
-953 -1007 0
-953 -1013 0
-953 -1019 0
-953 -1025 0
-953 -1031 0
-953 -1037 0
-953 -1043 0
-953 -1049 0
-953 -1055 0
-953 -1061 0
-953 -1067 0
-953 -1073 0
-953 -1079 0
-953 -1085 0
-953 -1091 0
-953 -1097 0
-953 -1103 0
-953 -1109 0
-953 -1115 0
-953 -1121 0
-953 -1127 0
-953 -1133 0
-953 -1139 0
-953 -1145 0
-953 -1151 0
-953 -1157 0
-953 -1163 0
-953 -1169 0
-953 -1175 0
-953 -1181 0
-953 -1187 0
-953 -1193 0
-953 -1199 0
-953 -1205 0
-953 -1211 0
-953 -1217 0
-953 -1223 0
-953 -1229 0
-953 -1235 0
-953 -1241 0
-953 -1247 0
-953 -1253 0
-953 -1259 0
-953 -1265 0
-959 -965 0
-959 -971 0
-959 -977 0
-959 -983 0
-959 -989 0
-959 -995 0
-959 -1001 0
-959 -1007 0
-959 -1013 0
-959 -1019 0
-959 -1025 0
-959 -1031 0
-959 -1037 0
-959 -1043 0
-959 -1049 0
-959 -1055 0
-959 -1061 0
-959 -1067 0
-959 -1073 0
-959 -1079 0
-959 -1085 0
-959 -1091 0
-959 -1097 0
-959 -1103 0
-959 -1109 0
-959 -1115 0
-959 -1121 0
-959 -1127 0
-959 -1133 0
-959 -1139 0
-959 -1145 0
-959 -1151 0
-959 -1157 0
-959 -1163 0
-959 -1169 0
-959 -1175 0
-959 -1181 0
-959 -1187 0
-959 -1193 0
-959 -1199 0
-959 -1205 0
-959 -1211 0
-959 -1217 0
-959 -1223 0
-959 -1229 0
-959 -1235 0
-959 -1241 0
-959 -1247 0
-959 -1253 0
-959 -1259 0
-959 -1265 0
-965 -971 0
-965 -977 0
-965 -983 0
-965 -989 0
-965 -995 0
-965 -1001 0
-965 -1007 0
-965 -1013 0
-965 -1019 0
-965 -1025 0
-965 -1031 0
-965 -1037 0
-965 -1043 0
-965 -1049 0
-965 -1055 0
-965 -1061 0
-965 -1067 0
-965 -1073 0
-965 -1079 0
-965 -1085 0
-965 -1091 0
-965 -1097 0
-965 -1103 0
-965 -1109 0
-965 -1115 0
-965 -1121 0
-965 -1127 0
-965 -1133 0
-965 -1139 0
-965 -1145 0
-965 -1151 0
-965 -1157 0
-965 -1163 0
-965 -1169 0
-965 -1175 0
-965 -1181 0
-965 -1187 0
-965 -1193 0
-965 -1199 0
-965 -1205 0
-965 -1211 0
-965 -1217 0
-965 -1223 0
-965 -1229 0
-965 -1235 0
-965 -1241 0
-965 -1247 0
-965 -1253 0
-965 -1259 0
-965 -1265 0
-971 -977 0
-971 -983 0
-971 -989 0
-971 -995 0
-971 -1001 0
-971 -1007 0
-971 -1013 0
-971 -1019 0
-971 -1025 0
-971 -1031 0
-971 -1037 0
-971 -1043 0
-971 -1049 0
-971 -1055 0
-971 -1061 0
-971 -1067 0
-971 -1073 0
-971 -1079 0
-971 -1085 0
-971 -1091 0
-971 -1097 0
-971 -1103 0
-971 -1109 0
-971 -1115 0
-971 -1121 0
-971 -1127 0
-971 -1133 0
-971 -1139 0
-971 -1145 0
-971 -1151 0
-971 -1157 0
-971 -1163 0
-971 -1169 0
-971 -1175 0
-971 -1181 0
-971 -1187 0
-971 -1193 0
-971 -1199 0
-971 -1205 0
-971 -1211 0
-971 -1217 0
-971 -1223 0
-971 -1229 0
-971 -1235 0
-971 -1241 0
-971 -1247 0
-971 -1253 0
-971 -1259 0
-971 -1265 0
-977 -983 0
-977 -989 0
-977 -995 0
-977 -1001 0
-977 -1007 0
-977 -1013 0
-977 -1019 0
-977 -1025 0
-977 -1031 0
-977 -1037 0
-977 -1043 0
-977 -1049 0
-977 -1055 0
-977 -1061 0
-977 -1067 0
-977 -1073 0
-977 -1079 0
-977 -1085 0
-977 -1091 0
-977 -1097 0
-977 -1103 0
-977 -1109 0
-977 -1115 0
-977 -1121 0
-977 -1127 0
-977 -1133 0
-977 -1139 0
-977 -1145 0
-977 -1151 0
-977 -1157 0
-977 -1163 0
-977 -1169 0
-977 -1175 0
-977 -1181 0
-977 -1187 0
-977 -1193 0
-977 -1199 0
-977 -1205 0
-977 -1211 0
-977 -1217 0
-977 -1223 0
-977 -1229 0
-977 -1235 0
-977 -1241 0
-977 -1247 0
-977 -1253 0
-977 -1259 0
-977 -1265 0
-983 -989 0
-983 -995 0
-983 -1001 0
-983 -1007 0
-983 -1013 0
-983 -1019 0
-983 -1025 0
-983 -1031 0
-983 -1037 0
-983 -1043 0
-983 -1049 0
-983 -1055 0
-983 -1061 0
-983 -1067 0
-983 -1073 0
-983 -1079 0
-983 -1085 0
-983 -1091 0
-983 -1097 0
-983 -1103 0
-983 -1109 0
-983 -1115 0
-983 -1121 0
-983 -1127 0
-983 -1133 0
-983 -1139 0
-983 -1145 0
-983 -1151 0
-983 -1157 0
-983 -1163 0
-983 -1169 0
-983 -1175 0
-983 -1181 0
-983 -1187 0
-983 -1193 0
-983 -1199 0
-983 -1205 0
-983 -1211 0
-983 -1217 0
-983 -1223 0
-983 -1229 0
-983 -1235 0
-983 -1241 0
-983 -1247 0
-983 -1253 0
-983 -1259 0
-983 -1265 0
-989 -995 0
-989 -1001 0
-989 -1007 0
-989 -1013 0
-989 -1019 0
-989 -1025 0
-989 -1031 0
-989 -1037 0
-989 -1043 0
-989 -1049 0
-989 -1055 0
-989 -1061 0
-989 -1067 0
-989 -1073 0
-989 -1079 0
-989 -1085 0
-989 -1091 0
-989 -1097 0
-989 -1103 0
-989 -1109 0
-989 -1115 0
-989 -1121 0
-989 -1127 0
-989 -1133 0
-989 -1139 0
-989 -1145 0
-989 -1151 0
-989 -1157 0
-989 -1163 0
-989 -1169 0
-989 -1175 0
-989 -1181 0
-989 -1187 0
-989 -1193 0
-989 -1199 0
-989 -1205 0
-989 -1211 0
-989 -1217 0
-989 -1223 0
-989 -1229 0
-989 -1235 0
-989 -1241 0
-989 -1247 0
-989 -1253 0
-989 -1259 0
-989 -1265 0
-995 -1001 0
-995 -1007 0
-995 -1013 0
-995 -1019 0
-995 -1025 0
-995 -1031 0
-995 -1037 0
-995 -1043 0
-995 -1049 0
-995 -1055 0
-995 -1061 0
-995 -1067 0
-995 -1073 0
-995 -1079 0
-995 -1085 0
-995 -1091 0
-995 -1097 0
-995 -1103 0
-995 -1109 0
-995 -1115 0
-995 -1121 0
-995 -1127 0
-995 -1133 0
-995 -1139 0
-995 -1145 0
-995 -1151 0
-995 -1157 0
-995 -1163 0
-995 -1169 0
-995 -1175 0
-995 -1181 0
-995 -1187 0
-995 -1193 0
-995 -1199 0
-995 -1205 0
-995 -1211 0
-995 -1217 0
-995 -1223 0
-995 -1229 0
-995 -1235 0
-995 -1241 0
-995 -1247 0
-995 -1253 0
-995 -1259 0
-995 -1265 0
-1001 -1007 0
-1001 -1013 0
-1001 -1019 0
-1001 -1025 0
-1001 -1031 0
-1001 -1037 0
-1001 -1043 0
-1001 -1049 0
-1001 -1055 0
-1001 -1061 0
-1001 -1067 0
-1001 -1073 0
-1001 -1079 0
-1001 -1085 0
-1001 -1091 0
-1001 -1097 0
-1001 -1103 0
-1001 -1109 0
-1001 -1115 0
-1001 -1121 0
-1001 -1127 0
-1001 -1133 0
-1001 -1139 0
-1001 -1145 0
-1001 -1151 0
-1001 -1157 0
-1001 -1163 0
-1001 -1169 0
-1001 -1175 0
-1001 -1181 0
-1001 -1187 0
-1001 -1193 0
-1001 -1199 0
-1001 -1205 0
-1001 -1211 0
-1001 -1217 0
-1001 -1223 0
-1001 -1229 0
-1001 -1235 0
-1001 -1241 0
-1001 -1247 0
-1001 -1253 0
-1001 -1259 0
-1001 -1265 0
-1007 -1013 0
-1007 -1019 0
-1007 -1025 0
-1007 -1031 0
-1007 -1037 0
-1007 -1043 0
-1007 -1049 0
-1007 -1055 0
-1007 -1061 0
-1007 -1067 0
-1007 -1073 0
-1007 -1079 0
-1007 -1085 0
-1007 -1091 0
-1007 -1097 0
-1007 -1103 0
-1007 -1109 0
-1007 -1115 0
-1007 -1121 0
-1007 -1127 0
-1007 -1133 0
-1007 -1139 0
-1007 -1145 0
-1007 -1151 0
-1007 -1157 0
-1007 -1163 0
-1007 -1169 0
-1007 -1175 0
-1007 -1181 0
-1007 -1187 0
-1007 -1193 0
-1007 -1199 0
-1007 -1205 0
-1007 -1211 0
-1007 -1217 0
-1007 -1223 0
-1007 -1229 0
-1007 -1235 0
-1007 -1241 0
-1007 -1247 0
-1007 -1253 0
-1007 -1259 0
-1007 -1265 0
-1013 -1019 0
-1013 -1025 0
-1013 -1031 0
-1013 -1037 0
-1013 -1043 0
-1013 -1049 0
-1013 -1055 0
-1013 -1061 0
-1013 -1067 0
-1013 -1073 0
-1013 -1079 0
-1013 -1085 0
-1013 -1091 0
-1013 -1097 0
-1013 -1103 0
-1013 -1109 0
-1013 -1115 0
-1013 -1121 0
-1013 -1127 0
-1013 -1133 0
-1013 -1139 0
-1013 -1145 0
-1013 -1151 0
-1013 -1157 0
-1013 -1163 0
-1013 -1169 0
-1013 -1175 0
-1013 -1181 0
-1013 -1187 0
-1013 -1193 0
-1013 -1199 0
-1013 -1205 0
-1013 -1211 0
-1013 -1217 0
-1013 -1223 0
-1013 -1229 0
-1013 -1235 0
-1013 -1241 0
-1013 -1247 0
-1013 -1253 0
-1013 -1259 0
-1013 -1265 0
-1019 -1025 0
-1019 -1031 0
-1019 -1037 0
-1019 -1043 0
-1019 -1049 0
-1019 -1055 0
-1019 -1061 0
-1019 -1067 0
-1019 -1073 0
-1019 -1079 0
-1019 -1085 0
-1019 -1091 0
-1019 -1097 0
-1019 -1103 0
-1019 -1109 0
-1019 -1115 0
-1019 -1121 0
-1019 -1127 0
-1019 -1133 0
-1019 -1139 0
-1019 -1145 0
-1019 -1151 0
-1019 -1157 0
-1019 -1163 0
-1019 -1169 0
-1019 -1175 0
-1019 -1181 0
-1019 -1187 0
-1019 -1193 0
-1019 -1199 0
-1019 -1205 0
-1019 -1211 0
-1019 -1217 0
-1019 -1223 0
-1019 -1229 0
-1019 -1235 0
-1019 -1241 0
-1019 -1247 0
-1019 -1253 0
-1019 -1259 0
-1019 -1265 0
-1025 -1031 0
-1025 -1037 0
-1025 -1043 0
-1025 -1049 0
-1025 -1055 0
-1025 -1061 0
-1025 -1067 0
-1025 -1073 0
-1025 -1079 0
-1025 -1085 0
-1025 -1091 0
-1025 -1097 0
-1025 -1103 0
-1025 -1109 0
-1025 -1115 0
-1025 -1121 0
-1025 -1127 0
-1025 -1133 0
-1025 -1139 0
-1025 -1145 0
-1025 -1151 0
-1025 -1157 0
-1025 -1163 0
-1025 -1169 0
-1025 -1175 0
-1025 -1181 0
-1025 -1187 0
-1025 -1193 0
-1025 -1199 0
-1025 -1205 0
-1025 -1211 0
-1025 -1217 0
-1025 -1223 0
-1025 -1229 0
-1025 -1235 0
-1025 -1241 0
-1025 -1247 0
-1025 -1253 0
-1025 -1259 0
-1025 -1265 0
-1031 -1037 0
-1031 -1043 0
-1031 -1049 0
-1031 -1055 0
-1031 -1061 0
-1031 -1067 0
-1031 -1073 0
-1031 -1079 0
-1031 -1085 0
-1031 -1091 0
-1031 -1097 0
-1031 -1103 0
-1031 -1109 0
-1031 -1115 0
-1031 -1121 0
-1031 -1127 0
-1031 -1133 0
-1031 -1139 0
-1031 -1145 0
-1031 -1151 0
-1031 -1157 0
-1031 -1163 0
-1031 -1169 0
-1031 -1175 0
-1031 -1181 0
-1031 -1187 0
-1031 -1193 0
-1031 -1199 0
-1031 -1205 0
-1031 -1211 0
-1031 -1217 0
-1031 -1223 0
-1031 -1229 0
-1031 -1235 0
-1031 -1241 0
-1031 -1247 0
-1031 -1253 0
-1031 -1259 0
-1031 -1265 0
-1037 -1043 0
-1037 -1049 0
-1037 -1055 0
-1037 -1061 0
-1037 -1067 0
-1037 -1073 0
-1037 -1079 0
-1037 -1085 0
-1037 -1091 0
-1037 -1097 0
-1037 -1103 0
-1037 -1109 0
-1037 -1115 0
-1037 -1121 0
-1037 -1127 0
-1037 -1133 0
-1037 -1139 0
-1037 -1145 0
-1037 -1151 0
-1037 -1157 0
-1037 -1163 0
-1037 -1169 0
-1037 -1175 0
-1037 -1181 0
-1037 -1187 0
-1037 -1193 0
-1037 -1199 0
-1037 -1205 0
-1037 -1211 0
-1037 -1217 0
-1037 -1223 0
-1037 -1229 0
-1037 -1235 0
-1037 -1241 0
-1037 -1247 0
-1037 -1253 0
-1037 -1259 0
-1037 -1265 0
-1043 -1049 0
-1043 -1055 0
-1043 -1061 0
-1043 -1067 0
-1043 -1073 0
-1043 -1079 0
-1043 -1085 0
-1043 -1091 0
-1043 -1097 0
-1043 -1103 0
-1043 -1109 0
-1043 -1115 0
-1043 -1121 0
-1043 -1127 0
-1043 -1133 0
-1043 -1139 0
-1043 -1145 0
-1043 -1151 0
-1043 -1157 0
-1043 -1163 0
-1043 -1169 0
-1043 -1175 0
-1043 -1181 0
-1043 -1187 0
-1043 -1193 0
-1043 -1199 0
-1043 -1205 0
-1043 -1211 0
-1043 -1217 0
-1043 -1223 0
-1043 -1229 0
-1043 -1235 0
-1043 -1241 0
-1043 -1247 0
-1043 -1253 0
-1043 -1259 0
-1043 -1265 0
-1049 -1055 0
-1049 -1061 0
-1049 -1067 0
-1049 -1073 0
-1049 -1079 0
-1049 -1085 0
-1049 -1091 0
-1049 -1097 0
-1049 -1103 0
-1049 -1109 0
-1049 -1115 0
-1049 -1121 0
-1049 -1127 0
-1049 -1133 0
-1049 -1139 0
-1049 -1145 0
-1049 -1151 0
-1049 -1157 0
-1049 -1163 0
-1049 -1169 0
-1049 -1175 0
-1049 -1181 0
-1049 -1187 0
-1049 -1193 0
-1049 -1199 0
-1049 -1205 0
-1049 -1211 0
-1049 -1217 0
-1049 -1223 0
-1049 -1229 0
-1049 -1235 0
-1049 -1241 0
-1049 -1247 0
-1049 -1253 0
-1049 -1259 0
-1049 -1265 0
-1055 -1061 0
-1055 -1067 0
-1055 -1073 0
-1055 -1079 0
-1055 -1085 0
-1055 -1091 0
-1055 -1097 0
-1055 -1103 0
-1055 -1109 0
-1055 -1115 0
-1055 -1121 0
-1055 -1127 0
-1055 -1133 0
-1055 -1139 0
-1055 -1145 0
-1055 -1151 0
-1055 -1157 0
-1055 -1163 0
-1055 -1169 0
-1055 -1175 0
-1055 -1181 0
-1055 -1187 0
-1055 -1193 0
-1055 -1199 0
-1055 -1205 0
-1055 -1211 0
-1055 -1217 0
-1055 -1223 0
-1055 -1229 0
-1055 -1235 0
-1055 -1241 0
-1055 -1247 0
-1055 -1253 0
-1055 -1259 0
-1055 -1265 0
-1061 -1067 0
-1061 -1073 0
-1061 -1079 0
-1061 -1085 0
-1061 -1091 0
-1061 -1097 0
-1061 -1103 0
-1061 -1109 0
-1061 -1115 0
-1061 -1121 0
-1061 -1127 0
-1061 -1133 0
-1061 -1139 0
-1061 -1145 0
-1061 -1151 0
-1061 -1157 0
-1061 -1163 0
-1061 -1169 0
-1061 -1175 0
-1061 -1181 0
-1061 -1187 0
-1061 -1193 0
-1061 -1199 0
-1061 -1205 0
-1061 -1211 0
-1061 -1217 0
-1061 -1223 0
-1061 -1229 0
-1061 -1235 0
-1061 -1241 0
-1061 -1247 0
-1061 -1253 0
-1061 -1259 0
-1061 -1265 0
-1067 -1073 0
-1067 -1079 0
-1067 -1085 0
-1067 -1091 0
-1067 -1097 0
-1067 -1103 0
-1067 -1109 0
-1067 -1115 0
-1067 -1121 0
-1067 -1127 0
-1067 -1133 0
-1067 -1139 0
-1067 -1145 0
-1067 -1151 0
-1067 -1157 0
-1067 -1163 0
-1067 -1169 0
-1067 -1175 0
-1067 -1181 0
-1067 -1187 0
-1067 -1193 0
-1067 -1199 0
-1067 -1205 0
-1067 -1211 0
-1067 -1217 0
-1067 -1223 0
-1067 -1229 0
-1067 -1235 0
-1067 -1241 0
-1067 -1247 0
-1067 -1253 0
-1067 -1259 0
-1067 -1265 0
-1073 -1079 0
-1073 -1085 0
-1073 -1091 0
-1073 -1097 0
-1073 -1103 0
-1073 -1109 0
-1073 -1115 0
-1073 -1121 0
-1073 -1127 0
-1073 -1133 0
-1073 -1139 0
-1073 -1145 0
-1073 -1151 0
-1073 -1157 0
-1073 -1163 0
-1073 -1169 0
-1073 -1175 0
-1073 -1181 0
-1073 -1187 0
-1073 -1193 0
-1073 -1199 0
-1073 -1205 0
-1073 -1211 0
-1073 -1217 0
-1073 -1223 0
-1073 -1229 0
-1073 -1235 0
-1073 -1241 0
-1073 -1247 0
-1073 -1253 0
-1073 -1259 0
-1073 -1265 0
-1079 -1085 0
-1079 -1091 0
-1079 -1097 0
-1079 -1103 0
-1079 -1109 0
-1079 -1115 0
-1079 -1121 0
-1079 -1127 0
-1079 -1133 0
-1079 -1139 0
-1079 -1145 0
-1079 -1151 0
-1079 -1157 0
-1079 -1163 0
-1079 -1169 0
-1079 -1175 0
-1079 -1181 0
-1079 -1187 0
-1079 -1193 0
-1079 -1199 0
-1079 -1205 0
-1079 -1211 0
-1079 -1217 0
-1079 -1223 0
-1079 -1229 0
-1079 -1235 0
-1079 -1241 0
-1079 -1247 0
-1079 -1253 0
-1079 -1259 0
-1079 -1265 0
-1085 -1091 0
-1085 -1097 0
-1085 -1103 0
-1085 -1109 0
-1085 -1115 0
-1085 -1121 0
-1085 -1127 0
-1085 -1133 0
-1085 -1139 0
-1085 -1145 0
-1085 -1151 0
-1085 -1157 0
-1085 -1163 0
-1085 -1169 0
-1085 -1175 0
-1085 -1181 0
-1085 -1187 0
-1085 -1193 0
-1085 -1199 0
-1085 -1205 0
-1085 -1211 0
-1085 -1217 0
-1085 -1223 0
-1085 -1229 0
-1085 -1235 0
-1085 -1241 0
-1085 -1247 0
-1085 -1253 0
-1085 -1259 0
-1085 -1265 0
-1091 -1097 0
-1091 -1103 0
-1091 -1109 0
-1091 -1115 0
-1091 -1121 0
-1091 -1127 0
-1091 -1133 0
-1091 -1139 0
-1091 -1145 0
-1091 -1151 0
-1091 -1157 0
-1091 -1163 0
-1091 -1169 0
-1091 -1175 0
-1091 -1181 0
-1091 -1187 0
-1091 -1193 0
-1091 -1199 0
-1091 -1205 0
-1091 -1211 0
-1091 -1217 0
-1091 -1223 0
-1091 -1229 0
-1091 -1235 0
-1091 -1241 0
-1091 -1247 0
-1091 -1253 0
-1091 -1259 0
-1091 -1265 0
-1097 -1103 0
-1097 -1109 0
-1097 -1115 0
-1097 -1121 0
-1097 -1127 0
-1097 -1133 0
-1097 -1139 0
-1097 -1145 0
-1097 -1151 0
-1097 -1157 0
-1097 -1163 0
-1097 -1169 0
-1097 -1175 0
-1097 -1181 0
-1097 -1187 0
-1097 -1193 0
-1097 -1199 0
-1097 -1205 0
-1097 -1211 0
-1097 -1217 0
-1097 -1223 0
-1097 -1229 0
-1097 -1235 0
-1097 -1241 0
-1097 -1247 0
-1097 -1253 0
-1097 -1259 0
-1097 -1265 0
-1103 -1109 0
-1103 -1115 0
-1103 -1121 0
-1103 -1127 0
-1103 -1133 0
-1103 -1139 0
-1103 -1145 0
-1103 -1151 0
-1103 -1157 0
-1103 -1163 0
-1103 -1169 0
-1103 -1175 0
-1103 -1181 0
-1103 -1187 0
-1103 -1193 0
-1103 -1199 0
-1103 -1205 0
-1103 -1211 0
-1103 -1217 0
-1103 -1223 0
-1103 -1229 0
-1103 -1235 0
-1103 -1241 0
-1103 -1247 0
-1103 -1253 0
-1103 -1259 0
-1103 -1265 0
-1109 -1115 0
-1109 -1121 0
-1109 -1127 0
-1109 -1133 0
-1109 -1139 0
-1109 -1145 0
-1109 -1151 0
-1109 -1157 0
-1109 -1163 0
-1109 -1169 0
-1109 -1175 0
-1109 -1181 0
-1109 -1187 0
-1109 -1193 0
-1109 -1199 0
-1109 -1205 0
-1109 -1211 0
-1109 -1217 0
-1109 -1223 0
-1109 -1229 0
-1109 -1235 0
-1109 -1241 0
-1109 -1247 0
-1109 -1253 0
-1109 -1259 0
-1109 -1265 0
-1115 -1121 0
-1115 -1127 0
-1115 -1133 0
-1115 -1139 0
-1115 -1145 0
-1115 -1151 0
-1115 -1157 0
-1115 -1163 0
-1115 -1169 0
-1115 -1175 0
-1115 -1181 0
-1115 -1187 0
-1115 -1193 0
-1115 -1199 0
-1115 -1205 0
-1115 -1211 0
-1115 -1217 0
-1115 -1223 0
-1115 -1229 0
-1115 -1235 0
-1115 -1241 0
-1115 -1247 0
-1115 -1253 0
-1115 -1259 0
-1115 -1265 0
-1121 -1127 0
-1121 -1133 0
-1121 -1139 0
-1121 -1145 0
-1121 -1151 0
-1121 -1157 0
-1121 -1163 0
-1121 -1169 0
-1121 -1175 0
-1121 -1181 0
-1121 -1187 0
-1121 -1193 0
-1121 -1199 0
-1121 -1205 0
-1121 -1211 0
-1121 -1217 0
-1121 -1223 0
-1121 -1229 0
-1121 -1235 0
-1121 -1241 0
-1121 -1247 0
-1121 -1253 0
-1121 -1259 0
-1121 -1265 0
-1127 -1133 0
-1127 -1139 0
-1127 -1145 0
-1127 -1151 0
-1127 -1157 0
-1127 -1163 0
-1127 -1169 0
-1127 -1175 0
-1127 -1181 0
-1127 -1187 0
-1127 -1193 0
-1127 -1199 0
-1127 -1205 0
-1127 -1211 0
-1127 -1217 0
-1127 -1223 0
-1127 -1229 0
-1127 -1235 0
-1127 -1241 0
-1127 -1247 0
-1127 -1253 0
-1127 -1259 0
-1127 -1265 0
-1133 -1139 0
-1133 -1145 0
-1133 -1151 0
-1133 -1157 0
-1133 -1163 0
-1133 -1169 0
-1133 -1175 0
-1133 -1181 0
-1133 -1187 0
-1133 -1193 0
-1133 -1199 0
-1133 -1205 0
-1133 -1211 0
-1133 -1217 0
-1133 -1223 0
-1133 -1229 0
-1133 -1235 0
-1133 -1241 0
-1133 -1247 0
-1133 -1253 0
-1133 -1259 0
-1133 -1265 0
-1139 -1145 0
-1139 -1151 0
-1139 -1157 0
-1139 -1163 0
-1139 -1169 0
-1139 -1175 0
-1139 -1181 0
-1139 -1187 0
-1139 -1193 0
-1139 -1199 0
-1139 -1205 0
-1139 -1211 0
-1139 -1217 0
-1139 -1223 0
-1139 -1229 0
-1139 -1235 0
-1139 -1241 0
-1139 -1247 0
-1139 -1253 0
-1139 -1259 0
-1139 -1265 0
-1145 -1151 0
-1145 -1157 0
-1145 -1163 0
-1145 -1169 0
-1145 -1175 0
-1145 -1181 0
-1145 -1187 0
-1145 -1193 0
-1145 -1199 0
-1145 -1205 0
-1145 -1211 0
-1145 -1217 0
-1145 -1223 0
-1145 -1229 0
-1145 -1235 0
-1145 -1241 0
-1145 -1247 0
-1145 -1253 0
-1145 -1259 0
-1145 -1265 0
-1151 -1157 0
-1151 -1163 0
-1151 -1169 0
-1151 -1175 0
-1151 -1181 0
-1151 -1187 0
-1151 -1193 0
-1151 -1199 0
-1151 -1205 0
-1151 -1211 0
-1151 -1217 0
-1151 -1223 0
-1151 -1229 0
-1151 -1235 0
-1151 -1241 0
-1151 -1247 0
-1151 -1253 0
-1151 -1259 0
-1151 -1265 0
-1157 -1163 0
-1157 -1169 0
-1157 -1175 0
-1157 -1181 0
-1157 -1187 0
-1157 -1193 0
-1157 -1199 0
-1157 -1205 0
-1157 -1211 0
-1157 -1217 0
-1157 -1223 0
-1157 -1229 0
-1157 -1235 0
-1157 -1241 0
-1157 -1247 0
-1157 -1253 0
-1157 -1259 0
-1157 -1265 0
-1163 -1169 0
-1163 -1175 0
-1163 -1181 0
-1163 -1187 0
-1163 -1193 0
-1163 -1199 0
-1163 -1205 0
-1163 -1211 0
-1163 -1217 0
-1163 -1223 0
-1163 -1229 0
-1163 -1235 0
-1163 -1241 0
-1163 -1247 0
-1163 -1253 0
-1163 -1259 0
-1163 -1265 0
-1169 -1175 0
-1169 -1181 0
-1169 -1187 0
-1169 -1193 0
-1169 -1199 0
-1169 -1205 0
-1169 -1211 0
-1169 -1217 0
-1169 -1223 0
-1169 -1229 0
-1169 -1235 0
-1169 -1241 0
-1169 -1247 0
-1169 -1253 0
-1169 -1259 0
-1169 -1265 0
-1175 -1181 0
-1175 -1187 0
-1175 -1193 0
-1175 -1199 0
-1175 -1205 0
-1175 -1211 0
-1175 -1217 0
-1175 -1223 0
-1175 -1229 0
-1175 -1235 0
-1175 -1241 0
-1175 -1247 0
-1175 -1253 0
-1175 -1259 0
-1175 -1265 0
-1181 -1187 0
-1181 -1193 0
-1181 -1199 0
-1181 -1205 0
-1181 -1211 0
-1181 -1217 0
-1181 -1223 0
-1181 -1229 0
-1181 -1235 0
-1181 -1241 0
-1181 -1247 0
-1181 -1253 0
-1181 -1259 0
-1181 -1265 0
-1187 -1193 0
-1187 -1199 0
-1187 -1205 0
-1187 -1211 0
-1187 -1217 0
-1187 -1223 0
-1187 -1229 0
-1187 -1235 0
-1187 -1241 0
-1187 -1247 0
-1187 -1253 0
-1187 -1259 0
-1187 -1265 0
-1193 -1199 0
-1193 -1205 0
-1193 -1211 0
-1193 -1217 0
-1193 -1223 0
-1193 -1229 0
-1193 -1235 0
-1193 -1241 0
-1193 -1247 0
-1193 -1253 0
-1193 -1259 0
-1193 -1265 0
-1199 -1205 0
-1199 -1211 0
-1199 -1217 0
-1199 -1223 0
-1199 -1229 0
-1199 -1235 0
-1199 -1241 0
-1199 -1247 0
-1199 -1253 0
-1199 -1259 0
-1199 -1265 0
-1205 -1211 0
-1205 -1217 0
-1205 -1223 0
-1205 -1229 0
-1205 -1235 0
-1205 -1241 0
-1205 -1247 0
-1205 -1253 0
-1205 -1259 0
-1205 -1265 0
-1211 -1217 0
-1211 -1223 0
-1211 -1229 0
-1211 -1235 0
-1211 -1241 0
-1211 -1247 0
-1211 -1253 0
-1211 -1259 0
-1211 -1265 0
-1217 -1223 0
-1217 -1229 0
-1217 -1235 0
-1217 -1241 0
-1217 -1247 0
-1217 -1253 0
-1217 -1259 0
-1217 -1265 0
-1223 -1229 0
-1223 -1235 0
-1223 -1241 0
-1223 -1247 0
-1223 -1253 0
-1223 -1259 0
-1223 -1265 0
-1229 -1235 0
-1229 -1241 0
-1229 -1247 0
-1229 -1253 0
-1229 -1259 0
-1229 -1265 0
-1235 -1241 0
-1235 -1247 0
-1235 -1253 0
-1235 -1259 0
-1235 -1265 0
-1241 -1247 0
-1241 -1253 0
-1241 -1259 0
-1241 -1265 0
-1247 -1253 0
-1247 -1259 0
-1247 -1265 0
-1253 -1259 0
-1253 -1265 0
-1259 -1265 0
-767 235 0
-767 -186 0
-767 -172 5 0
-767 -172 159 0
-767 -172 -53 0
-767 -172 -60 0
-767 -172 -67 0
-767 -172 -74 0
-767 -172 -81 0
-767 -172 -46 -179 0
-767 -172 -88 -200 0
-767 -172 -123 -221 0
-767 -172 389 515 641 0
-767 -179 5 0
-767 -179 166 0
-767 -179 -53 0
-767 -179 -60 0
-767 -179 -67 0
-767 -179 -74 0
-767 -179 -81 0
-767 -179 -46 -186 0
-767 -179 -88 -207 0
-767 -179 -123 -228 0
-767 -179 396 522 648 0
-767 -4 -172 -158 0
-767 -4 -179 -165 0
-773 235 0
-773 -186 0
-773 -172 12 0
-773 -172 159 0
-773 -172 -46 0
-773 -172 -60 0
-773 -172 -67 0
-773 -172 -74 0
-773 -172 -81 0
-773 -172 -53 -179 0
-773 -172 -88 -200 0
-773 -172 -95 -200 0
-773 -172 -123 -221 0
-773 -172 -130 -221 0
-773 -172 410 536 662 0
-773 -179 12 0
-773 -179 166 0
-773 -179 -46 0
-773 -179 -60 0
-773 -179 -67 0
-773 -179 -74 0
-773 -179 -81 0
-773 -179 -53 -186 0
-773 -179 -88 -207 0
-773 -179 -95 -207 0
-773 -179 -123 -228 0
-773 -179 -130 -228 0
-773 -179 417 543 669 0
-773 -11 -172 -158 0
-773 -11 -179 -165 0
-779 235 0
-779 -186 0
-779 -172 19 0
-779 -172 159 0
-779 -172 -46 0
-779 -172 -53 0
-779 -172 -67 0
-779 -172 -74 0
-779 -172 -81 0
-779 -172 -60 -179 0
-779 -172 -95 -200 0
-779 -172 -102 -200 0
-779 -172 -123 -221 0
-779 -172 -130 -221 0
-779 -172 -137 -221 0
-779 -172 431 557 683 0
-779 -179 19 0
-779 -179 166 0
-779 -179 -46 0
-779 -179 -53 0
-779 -179 -67 0
-779 -179 -74 0
-779 -179 -81 0
-779 -179 -60 -186 0
-779 -179 -95 -207 0
-779 -179 -102 -207 0
-779 -179 -123 -228 0
-779 -179 -130 -228 0
-779 -179 -137 -228 0
-779 -179 438 564 690 0
-779 -18 -172 -158 0
-779 -18 -179 -165 0
-785 235 0
-785 -186 0
-785 -172 26 0
-785 -172 159 0
-785 -172 -46 0
-785 -172 -53 0
-785 -172 -60 0
-785 -172 -74 0
-785 -172 -81 0
-785 -172 -67 -179 0
-785 -172 -102 -200 0
-785 -172 -109 -200 0
-785 -172 -130 -221 0
-785 -172 -137 -221 0
-785 -172 -144 -221 0
-785 -172 452 578 704 0
-785 -179 26 0
-785 -179 166 0
-785 -179 -46 0
-785 -179 -53 0
-785 -179 -60 0
-785 -179 -74 0
-785 -179 -81 0
-785 -179 -67 -186 0
-785 -179 -102 -207 0
-785 -179 -109 -207 0
-785 -179 -130 -228 0
-785 -179 -137 -228 0
-785 -179 -144 -228 0
-785 -179 459 585 711 0
-785 -25 -172 -158 0
-785 -25 -179 -165 0
-791 235 0
-791 -186 0
-791 -172 33 0
-791 -172 159 0
-791 -172 -46 0
-791 -172 -53 0
-791 -172 -60 0
-791 -172 -67 0
-791 -172 -81 0
-791 -172 -74 -179 0
-791 -172 -109 -200 0
-791 -172 -116 -200 0
-791 -172 -137 -221 0
-791 -172 -144 -221 0
-791 -172 473 599 725 0
-791 -179 33 0
-791 -179 166 0
-791 -179 -46 0
-791 -179 -53 0
-791 -179 -60 0
-791 -179 -67 0
-791 -179 -81 0
-791 -179 -74 -186 0
-791 -179 -109 -207 0
-791 -179 -116 -207 0
-791 -179 -137 -228 0
-791 -179 -144 -228 0
-791 -179 480 606 732 0
-791 -32 -172 -158 0
-791 -32 -179 -165 0
-797 235 0
-797 -186 0
-797 -172 40 0
-797 -172 159 0
-797 -172 -46 0
-797 -172 -53 0
-797 -172 -60 0
-797 -172 -67 0
-797 -172 -74 0
-797 -172 -81 -179 0
-797 -172 -116 -200 0
-797 -172 -144 -221 0
-797 -172 494 620 746 0
-797 -179 40 0
-797 -179 166 0
-797 -179 -46 0
-797 -179 -53 0
-797 -179 -60 0
-797 -179 -67 0
-797 -179 -74 0
-797 -179 -81 -186 0
-797 -179 -116 -207 0
-797 -179 -144 -228 0
-797 -179 501 627 753 0
-797 -39 -172 -158 0
-797 -39 -179 -165 0
-803 235 0
-803 -207 0
-803 -193 5 0
-803 -193 159 0
-803 -193 -95 0
-803 -193 -102 0
-803 -193 -109 0
-803 -193 -116 0
-803 -193 -46 -179 0
-803 -193 -88 -200 0
-803 -193 -123 -221 0
-803 -193 389 515 641 0
-803 -200 5 0
-803 -200 166 0
-803 -200 -95 0
-803 -200 -102 0
-803 -200 -109 0
-803 -200 -116 0
-803 -200 -46 -186 0
-803 -200 -88 -207 0
-803 -200 -123 -228 0
-803 -200 396 522 648 0
-803 -4 -193 -158 0
-803 -4 -200 -165 0
-809 235 0
-809 -207 0
-809 -193 12 0
-809 -193 159 0
-809 -193 -102 0
-809 -193 -109 0
-809 -193 -116 0
-809 -193 -53 -179 0
-809 -193 -88 -200 0
-809 -193 -95 -200 0
-809 -193 -123 -221 0
-809 -193 -130 -221 0
-809 -193 410 536 662 0
-809 -200 12 0
-809 -200 166 0
-809 -200 -102 0
-809 -200 -109 0
-809 -200 -116 0
-809 -200 -53 -186 0
-809 -200 -88 -207 0
-809 -200 -95 -207 0
-809 -200 -123 -228 0
-809 -200 -130 -228 0
-809 -200 417 543 669 0
-809 -11 -193 -158 0
-809 -11 -200 -165 0
-815 235 0
-815 -207 0
-815 -193 19 0
-815 -193 159 0
-815 -193 -88 0
-815 -193 -109 0
-815 -193 -116 0
-815 -193 -60 -179 0
-815 -193 -95 -200 0
-815 -193 -102 -200 0
-815 -193 -123 -221 0
-815 -193 -130 -221 0
-815 -193 -137 -221 0
-815 -193 431 557 683 0
-815 -200 19 0
-815 -200 166 0
-815 -200 -88 0
-815 -200 -109 0
-815 -200 -116 0
-815 -200 -60 -186 0
-815 -200 -95 -207 0
-815 -200 -102 -207 0
-815 -200 -123 -228 0
-815 -200 -130 -228 0
-815 -200 -137 -228 0
-815 -200 438 564 690 0
-815 -18 -193 -158 0
-815 -18 -200 -165 0
-821 235 0
-821 -207 0
-821 -193 26 0
-821 -193 159 0
-821 -193 -88 0
-821 -193 -95 0
-821 -193 -116 0
-821 -193 -67 -179 0
-821 -193 -102 -200 0
-821 -193 -109 -200 0
-821 -193 -130 -221 0
-821 -193 -137 -221 0
-821 -193 -144 -221 0
-821 -193 452 578 704 0
-821 -200 26 0
-821 -200 166 0
-821 -200 -88 0
-821 -200 -95 0
-821 -200 -116 0
-821 -200 -67 -186 0
-821 -200 -102 -207 0
-821 -200 -109 -207 0
-821 -200 -130 -228 0
-821 -200 -137 -228 0
-821 -200 -144 -228 0
-821 -200 459 585 711 0
-821 -25 -193 -158 0
-821 -25 -200 -165 0
-827 235 0
-827 -207 0
-827 -193 33 0
-827 -193 159 0
-827 -193 -88 0
-827 -193 -95 0
-827 -193 -102 0
-827 -193 -74 -179 0
-827 -193 -109 -200 0
-827 -193 -116 -200 0
-827 -193 -137 -221 0
-827 -193 -144 -221 0
-827 -193 473 599 725 0
-827 -200 33 0
-827 -200 166 0
-827 -200 -88 0
-827 -200 -95 0
-827 -200 -102 0
-827 -200 -74 -186 0
-827 -200 -109 -207 0
-827 -200 -116 -207 0
-827 -200 -137 -228 0
-827 -200 -144 -228 0
-827 -200 480 606 732 0
-827 -32 -193 -158 0
-827 -32 -200 -165 0
-833 235 0
-833 -207 0
-833 -193 40 0
-833 -193 159 0
-833 -193 -88 0
-833 -193 -95 0
-833 -193 -102 0
-833 -193 -109 0
-833 -193 -81 -179 0
-833 -193 -116 -200 0
-833 -193 -144 -221 0
-833 -193 494 620 746 0
-833 -200 40 0
-833 -200 166 0
-833 -200 -88 0
-833 -200 -95 0
-833 -200 -102 0
-833 -200 -109 0
-833 -200 -81 -186 0
-833 -200 -116 -207 0
-833 -200 -144 -228 0
-833 -200 501 627 753 0
-833 -39 -193 -158 0
-833 -39 -200 -165 0
-839 235 0
-839 -228 0
-839 -214 5 0
-839 -214 159 0
-839 -214 -130 0
-839 -214 -137 0
-839 -214 -144 0
-839 -214 -46 -179 0
-839 -214 -88 -200 0
-839 -214 -123 -221 0
-839 -214 389 515 641 0
-839 -221 5 0
-839 -221 166 0
-839 -221 -130 0
-839 -221 -137 0
-839 -221 -144 0
-839 -221 -46 -186 0
-839 -221 -88 -207 0
-839 -221 -123 -228 0
-839 -221 396 522 648 0
-839 -4 -214 -158 0
-839 -4 -221 -165 0
-845 235 0
-845 -228 0
-845 -214 12 0
-845 -214 159 0
-845 -214 -137 0
-845 -214 -144 0
-845 -214 -53 -179 0
-845 -214 -88 -200 0
-845 -214 -95 -200 0
-845 -214 -123 -221 0
-845 -214 -130 -221 0
-845 -214 410 536 662 0
-845 -221 12 0
-845 -221 166 0
-845 -221 -137 0
-845 -221 -144 0
-845 -221 -53 -186 0
-845 -221 -88 -207 0
-845 -221 -95 -207 0
-845 -221 -123 -228 0
-845 -221 -130 -228 0
-845 -221 417 543 669 0
-845 -11 -214 -158 0
-845 -11 -221 -165 0
-851 235 0
-851 -228 0
-851 -214 19 0
-851 -214 159 0
-851 -214 -144 0
-851 -214 -60 -179 0
-851 -214 -95 -200 0
-851 -214 -102 -200 0
-851 -214 -123 -221 0
-851 -214 -130 -221 0
-851 -214 -137 -221 0
-851 -214 431 557 683 0
-851 -221 19 0
-851 -221 166 0
-851 -221 -144 0
-851 -221 -60 -186 0
-851 -221 -95 -207 0
-851 -221 -102 -207 0
-851 -221 -123 -228 0
-851 -221 -130 -228 0
-851 -221 -137 -228 0
-851 -221 438 564 690 0
-851 -18 -214 -158 0
-851 -18 -221 -165 0
-857 235 0
-857 -228 0
-857 -214 26 0
-857 -214 159 0
-857 -214 -123 0
-857 -214 -67 -179 0
-857 -214 -102 -200 0
-857 -214 -109 -200 0
-857 -214 -130 -221 0
-857 -214 -137 -221 0
-857 -214 -144 -221 0
-857 -214 452 578 704 0
-857 -221 26 0
-857 -221 166 0
-857 -221 -123 0
-857 -221 -67 -186 0
-857 -221 -102 -207 0
-857 -221 -109 -207 0
-857 -221 -130 -228 0
-857 -221 -137 -228 0
-857 -221 -144 -228 0
-857 -221 459 585 711 0
-857 -25 -214 -158 0
-857 -25 -221 -165 0
-863 235 0
-863 -228 0
-863 -214 33 0
-863 -214 159 0
-863 -214 -123 0
-863 -214 -130 0
-863 -214 -74 -179 0
-863 -214 -109 -200 0
-863 -214 -116 -200 0
-863 -214 -137 -221 0
-863 -214 -144 -221 0
-863 -214 473 599 725 0
-863 -221 33 0
-863 -221 166 0
-863 -221 -123 0
-863 -221 -130 0
-863 -221 -74 -186 0
-863 -221 -109 -207 0
-863 -221 -116 -207 0
-863 -221 -137 -228 0
-863 -221 -144 -228 0
-863 -221 480 606 732 0
-863 -32 -214 -158 0
-863 -32 -221 -165 0
-869 235 0
-869 -228 0
-869 -214 40 0
-869 -214 159 0
-869 -214 -123 0
-869 -214 -130 0
-869 -214 -137 0
-869 -214 -81 -179 0
-869 -214 -116 -200 0
-869 -214 -144 -221 0
-869 -214 494 620 746 0
-869 -221 40 0
-869 -221 166 0
-869 -221 -123 0
-869 -221 -130 0
-869 -221 -137 0
-869 -221 -81 -186 0
-869 -221 -116 -207 0
-869 -221 -144 -228 0
-869 -221 501 627 753 0
-869 -39 -214 -158 0
-869 -39 -221 -165 0
-875 235 0
-875 5 0
-875 152 0
-875 -4 -151 0
-875 -46 -172 0
-875 -88 -193 0
-875 -123 -214 0
-881 235 0
-881 12 0
-881 152 0
-881 -11 -151 0
-881 -53 -172 0
-881 -88 -193 0
-881 -95 -193 0
-881 -123 -214 0
-881 -130 -214 0
-887 235 0
-887 19 0
-887 152 0
-887 -18 -151 0
-887 -60 -172 0
-887 -95 -193 0
-887 -102 -193 0
-887 -123 -214 0
-887 -130 -214 0
-887 -137 -214 0
-893 235 0
-893 26 0
-893 152 0
-893 -25 -151 0
-893 -67 -172 0
-893 -102 -193 0
-893 -109 -193 0
-893 -130 -214 0
-893 -137 -214 0
-893 -144 -214 0
-899 235 0
-899 33 0
-899 152 0
-899 -32 -151 0
-899 -74 -172 0
-899 -109 -193 0
-899 -116 -193 0
-899 -137 -214 0
-899 -144 -214 0
-905 235 0
-905 40 0
-905 152 0
-905 -39 -151 0
-905 -81 -172 0
-905 -116 -193 0
-905 -144 -214 0
-911 242 0
-911 -165 0
-911 -151 47 0
-911 -151 180 0
-911 -151 -11 0
-911 -151 -18 0
-911 -151 -25 0
-911 -151 -32 0
-911 -151 -39 0
-911 -151 -4 -158 0
-911 -151 -88 -200 0
-911 -151 -123 -221 0
-911 -151 263 515 641 0
-911 -158 47 0
-911 -158 187 0
-911 -158 -11 0
-911 -158 -18 0
-911 -158 -25 0
-911 -158 -32 0
-911 -158 -39 0
-911 -158 -4 -165 0
-911 -158 -88 -207 0
-911 -158 -123 -228 0
-911 -158 270 522 648 0
-911 -46 -151 -179 0
-911 -46 -158 -186 0
-917 242 0
-917 -165 0
-917 -151 54 0
-917 -151 180 0
-917 -151 -4 0
-917 -151 -18 0
-917 -151 -25 0
-917 -151 -32 0
-917 -151 -39 0
-917 -151 -11 -158 0
-917 -151 -88 -200 0
-917 -151 -95 -200 0
-917 -151 -123 -221 0
-917 -151 -130 -221 0
-917 -151 284 536 662 0
-917 -158 54 0
-917 -158 187 0
-917 -158 -4 0
-917 -158 -18 0
-917 -158 -25 0
-917 -158 -32 0
-917 -158 -39 0
-917 -158 -11 -165 0
-917 -158 -88 -207 0
-917 -158 -95 -207 0
-917 -158 -123 -228 0
-917 -158 -130 -228 0
-917 -158 291 543 669 0
-917 -53 -151 -179 0
-917 -53 -158 -186 0
-923 242 0
-923 -165 0
-923 -151 61 0
-923 -151 180 0
-923 -151 -4 0
-923 -151 -11 0
-923 -151 -25 0
-923 -151 -32 0
-923 -151 -39 0
-923 -151 -18 -158 0
-923 -151 -95 -200 0
-923 -151 -102 -200 0
-923 -151 -123 -221 0
-923 -151 -130 -221 0
-923 -151 -137 -221 0
-923 -151 305 557 683 0
-923 -158 61 0
-923 -158 187 0
-923 -158 -4 0
-923 -158 -11 0
-923 -158 -25 0
-923 -158 -32 0
-923 -158 -39 0
-923 -158 -18 -165 0
-923 -158 -95 -207 0
-923 -158 -102 -207 0
-923 -158 -123 -228 0
-923 -158 -130 -228 0
-923 -158 -137 -228 0
-923 -158 312 564 690 0
-923 -60 -151 -179 0
-923 -60 -158 -186 0
-929 242 0
-929 -165 0
-929 -151 68 0
-929 -151 180 0
-929 -151 -4 0
-929 -151 -11 0
-929 -151 -18 0
-929 -151 -32 0
-929 -151 -39 0
-929 -151 -25 -158 0
-929 -151 -102 -200 0
-929 -151 -109 -200 0
-929 -151 -130 -221 0
-929 -151 -137 -221 0
-929 -151 -144 -221 0
-929 -151 326 578 704 0
-929 -158 68 0
-929 -158 187 0
-929 -158 -4 0
-929 -158 -11 0
-929 -158 -18 0
-929 -158 -32 0
-929 -158 -39 0
-929 -158 -25 -165 0
-929 -158 -102 -207 0
-929 -158 -109 -207 0
-929 -158 -130 -228 0
-929 -158 -137 -228 0
-929 -158 -144 -228 0
-929 -158 333 585 711 0
-929 -67 -151 -179 0
-929 -67 -158 -186 0
-935 242 0
-935 -165 0
-935 -151 75 0
-935 -151 180 0
-935 -151 -4 0
-935 -151 -11 0
-935 -151 -18 0
-935 -151 -25 0
-935 -151 -39 0
-935 -151 -32 -158 0
-935 -151 -109 -200 0
-935 -151 -116 -200 0
-935 -151 -137 -221 0
-935 -151 -144 -221 0
-935 -151 347 599 725 0
-935 -158 75 0
-935 -158 187 0
-935 -158 -4 0
-935 -158 -11 0
-935 -158 -18 0
-935 -158 -25 0
-935 -158 -39 0
-935 -158 -32 -165 0
-935 -158 -109 -207 0
-935 -158 -116 -207 0
-935 -158 -137 -228 0
-935 -158 -144 -228 0
-935 -158 354 606 732 0
-935 -74 -151 -179 0
-935 -74 -158 -186 0
-941 242 0
-941 -165 0
-941 -151 82 0
-941 -151 180 0
-941 -151 -4 0
-941 -151 -11 0
-941 -151 -18 0
-941 -151 -25 0
-941 -151 -32 0
-941 -151 -39 -158 0
-941 -151 -116 -200 0
-941 -151 -144 -221 0
-941 -151 368 620 746 0
-941 -158 82 0
-941 -158 187 0
-941 -158 -4 0
-941 -158 -11 0
-941 -158 -18 0
-941 -158 -25 0
-941 -158 -32 0
-941 -158 -39 -165 0
-941 -158 -116 -207 0
-941 -158 -144 -228 0
-941 -158 375 627 753 0
-941 -81 -151 -179 0
-941 -81 -158 -186 0
-947 242 0
-947 -207 0
-947 -193 47 0
-947 -193 180 0
-947 -193 -95 0
-947 -193 -102 0
-947 -193 -109 0
-947 -193 -116 0
-947 -193 -4 -158 0
-947 -193 -88 -200 0
-947 -193 -123 -221 0
-947 -193 263 515 641 0
-947 -200 47 0
-947 -200 187 0
-947 -200 -95 0
-947 -200 -102 0
-947 -200 -109 0
-947 -200 -116 0
-947 -200 -4 -165 0
-947 -200 -88 -207 0
-947 -200 -123 -228 0
-947 -200 270 522 648 0
-947 -46 -193 -179 0
-947 -46 -200 -186 0
-953 242 0
-953 -207 0
-953 -193 54 0
-953 -193 180 0
-953 -193 -102 0
-953 -193 -109 0
-953 -193 -116 0
-953 -193 -11 -158 0
-953 -193 -88 -200 0
-953 -193 -95 -200 0
-953 -193 -123 -221 0
-953 -193 -130 -221 0
-953 -193 284 536 662 0
-953 -200 54 0
-953 -200 187 0
-953 -200 -102 0
-953 -200 -109 0
-953 -200 -116 0
-953 -200 -11 -165 0
-953 -200 -88 -207 0
-953 -200 -95 -207 0
-953 -200 -123 -228 0
-953 -200 -130 -228 0
-953 -200 291 543 669 0
-953 -53 -193 -179 0
-953 -53 -200 -186 0
-959 242 0
-959 -207 0
-959 -193 61 0
-959 -193 180 0
-959 -193 -88 0
-959 -193 -109 0
-959 -193 -116 0
-959 -193 -18 -158 0
-959 -193 -95 -200 0
-959 -193 -102 -200 0
-959 -193 -123 -221 0
-959 -193 -130 -221 0
-959 -193 -137 -221 0
-959 -193 305 557 683 0
-959 -200 61 0
-959 -200 187 0
-959 -200 -88 0
-959 -200 -109 0
-959 -200 -116 0
-959 -200 -18 -165 0
-959 -200 -95 -207 0
-959 -200 -102 -207 0
-959 -200 -123 -228 0
-959 -200 -130 -228 0
-959 -200 -137 -228 0
-959 -200 312 564 690 0
-959 -60 -193 -179 0
-959 -60 -200 -186 0
-965 242 0
-965 -207 0
-965 -193 68 0
-965 -193 180 0
-965 -193 -88 0
-965 -193 -95 0
-965 -193 -116 0
-965 -193 -25 -158 0
-965 -193 -102 -200 0
-965 -193 -109 -200 0
-965 -193 -130 -221 0
-965 -193 -137 -221 0
-965 -193 -144 -221 0
-965 -193 326 578 704 0
-965 -200 68 0
-965 -200 187 0
-965 -200 -88 0
-965 -200 -95 0
-965 -200 -116 0
-965 -200 -25 -165 0
-965 -200 -102 -207 0
-965 -200 -109 -207 0
-965 -200 -130 -228 0
-965 -200 -137 -228 0
-965 -200 -144 -228 0
-965 -200 333 585 711 0
-965 -67 -193 -179 0
-965 -67 -200 -186 0
-971 242 0
-971 -207 0
-971 -193 75 0
-971 -193 180 0
-971 -193 -88 0
-971 -193 -95 0
-971 -193 -102 0
-971 -193 -32 -158 0
-971 -193 -109 -200 0
-971 -193 -116 -200 0
-971 -193 -137 -221 0
-971 -193 -144 -221 0
-971 -193 347 599 725 0
-971 -200 75 0
-971 -200 187 0
-971 -200 -88 0
-971 -200 -95 0
-971 -200 -102 0
-971 -200 -32 -165 0
-971 -200 -109 -207 0
-971 -200 -116 -207 0
-971 -200 -137 -228 0
-971 -200 -144 -228 0
-971 -200 354 606 732 0
-971 -74 -193 -179 0
-971 -74 -200 -186 0
-977 242 0
-977 -207 0
-977 -193 82 0
-977 -193 180 0
-977 -193 -88 0
-977 -193 -95 0
-977 -193 -102 0
-977 -193 -109 0
-977 -193 -39 -158 0
-977 -193 -116 -200 0
-977 -193 -144 -221 0
-977 -193 368 620 746 0
-977 -200 82 0
-977 -200 187 0
-977 -200 -88 0
-977 -200 -95 0
-977 -200 -102 0
-977 -200 -109 0
-977 -200 -39 -165 0
-977 -200 -116 -207 0
-977 -200 -144 -228 0
-977 -200 375 627 753 0
-977 -81 -193 -179 0
-977 -81 -200 -186 0
-983 242 0
-983 -228 0
-983 -214 47 0
-983 -214 180 0
-983 -214 -130 0
-983 -214 -137 0
-983 -214 -144 0
-983 -214 -4 -158 0
-983 -214 -88 -200 0
-983 -214 -123 -221 0
-983 -214 263 515 641 0
-983 -221 47 0
-983 -221 187 0
-983 -221 -130 0
-983 -221 -137 0
-983 -221 -144 0
-983 -221 -4 -165 0
-983 -221 -88 -207 0
-983 -221 -123 -228 0
-983 -221 270 522 648 0
-983 -46 -214 -179 0
-983 -46 -221 -186 0
-989 242 0
-989 -228 0
-989 -214 54 0
-989 -214 180 0
-989 -214 -137 0
-989 -214 -144 0
-989 -214 -11 -158 0
-989 -214 -88 -200 0
-989 -214 -95 -200 0
-989 -214 -123 -221 0
-989 -214 -130 -221 0
-989 -214 284 536 662 0
-989 -221 54 0
-989 -221 187 0
-989 -221 -137 0
-989 -221 -144 0
-989 -221 -11 -165 0
-989 -221 -88 -207 0
-989 -221 -95 -207 0
-989 -221 -123 -228 0
-989 -221 -130 -228 0
-989 -221 291 543 669 0
-989 -53 -214 -179 0
-989 -53 -221 -186 0
-995 242 0
-995 -228 0
-995 -214 61 0
-995 -214 180 0
-995 -214 -144 0
-995 -214 -18 -158 0
-995 -214 -95 -200 0
-995 -214 -102 -200 0
-995 -214 -123 -221 0
-995 -214 -130 -221 0
-995 -214 -137 -221 0
-995 -214 305 557 683 0
-995 -221 61 0
-995 -221 187 0
-995 -221 -144 0
-995 -221 -18 -165 0
-995 -221 -95 -207 0
-995 -221 -102 -207 0
-995 -221 -123 -228 0
-995 -221 -130 -228 0
-995 -221 -137 -228 0
-995 -221 312 564 690 0
-995 -60 -214 -179 0
-995 -60 -221 -186 0
-1001 242 0
-1001 -228 0
-1001 -214 68 0
-1001 -214 180 0
-1001 -214 -123 0
-1001 -214 -25 -158 0
-1001 -214 -102 -200 0
-1001 -214 -109 -200 0
-1001 -214 -130 -221 0
-1001 -214 -137 -221 0
-1001 -214 -144 -221 0
-1001 -214 326 578 704 0
-1001 -221 68 0
-1001 -221 187 0
-1001 -221 -123 0
-1001 -221 -25 -165 0
-1001 -221 -102 -207 0
-1001 -221 -109 -207 0
-1001 -221 -130 -228 0
-1001 -221 -137 -228 0
-1001 -221 -144 -228 0
-1001 -221 333 585 711 0
-1001 -67 -214 -179 0
-1001 -67 -221 -186 0
-1007 242 0
-1007 -228 0
-1007 -214 75 0
-1007 -214 180 0
-1007 -214 -123 0
-1007 -214 -130 0
-1007 -214 -32 -158 0
-1007 -214 -109 -200 0
-1007 -214 -116 -200 0
-1007 -214 -137 -221 0
-1007 -214 -144 -221 0
-1007 -214 347 599 725 0
-1007 -221 75 0
-1007 -221 187 0
-1007 -221 -123 0
-1007 -221 -130 0
-1007 -221 -32 -165 0
-1007 -221 -109 -207 0
-1007 -221 -116 -207 0
-1007 -221 -137 -228 0
-1007 -221 -144 -228 0
-1007 -221 354 606 732 0
-1007 -74 -214 -179 0
-1007 -74 -221 -186 0
-1013 242 0
-1013 -228 0
-1013 -214 82 0
-1013 -214 180 0
-1013 -214 -123 0
-1013 -214 -130 0
-1013 -214 -137 0
-1013 -214 -39 -158 0
-1013 -214 -116 -200 0
-1013 -214 -144 -221 0
-1013 -214 368 620 746 0
-1013 -221 82 0
-1013 -221 187 0
-1013 -221 -123 0
-1013 -221 -130 0
-1013 -221 -137 0
-1013 -221 -39 -165 0
-1013 -221 -116 -207 0
-1013 -221 -144 -228 0
-1013 -221 375 627 753 0
-1013 -81 -214 -179 0
-1013 -81 -221 -186 0
-1019 242 0
-1019 47 0
-1019 173 0
-1019 -46 -172 0
-1019 -4 -151 0
-1019 -88 -193 0
-1019 -123 -214 0
-1025 242 0
-1025 54 0
-1025 173 0
-1025 -53 -172 0
-1025 -11 -151 0
-1025 -88 -193 0
-1025 -95 -193 0
-1025 -123 -214 0
-1025 -130 -214 0
-1031 242 0
-1031 61 0
-1031 173 0
-1031 -60 -172 0
-1031 -18 -151 0
-1031 -95 -193 0
-1031 -102 -193 0
-1031 -123 -214 0
-1031 -130 -214 0
-1031 -137 -214 0
-1037 242 0
-1037 68 0
-1037 173 0
-1037 -67 -172 0
-1037 -25 -151 0
-1037 -102 -193 0
-1037 -109 -193 0
-1037 -130 -214 0
-1037 -137 -214 0
-1037 -144 -214 0
-1043 242 0
-1043 75 0
-1043 173 0
-1043 -74 -172 0
-1043 -32 -151 0
-1043 -109 -193 0
-1043 -116 -193 0
-1043 -137 -214 0
-1043 -144 -214 0
-1049 242 0
-1049 82 0
-1049 173 0
-1049 -81 -172 0
-1049 -39 -151 0
-1049 -116 -193 0
-1049 -144 -214 0
-1055 249 0
-1055 -165 0
-1055 -151 89 0
-1055 -151 201 0
-1055 -151 -18 0
-1055 -151 -25 0
-1055 -151 -32 0
-1055 -151 -39 0
-1055 -151 -4 -158 0
-1055 -151 -11 -158 0
-1055 -151 -46 -179 0
-1055 -151 -53 -179 0
-1055 -151 -123 -221 0
-1055 -151 -130 -221 0
-1055 -151 263 389 641 284 410 662 0
-1055 -158 89 0
-1055 -158 208 0
-1055 -158 -18 0
-1055 -158 -25 0
-1055 -158 -32 0
-1055 -158 -39 0
-1055 -158 -4 -165 0
-1055 -158 -11 -165 0
-1055 -158 -46 -186 0
-1055 -158 -53 -186 0
-1055 -158 -123 -228 0
-1055 -158 -130 -228 0
-1055 -158 270 396 648 291 417 669 0
-1055 -88 -151 -200 0
-1055 -88 -158 -207 0
-1061 249 0
-1061 -165 0
-1061 -151 96 0
-1061 -151 201 0
-1061 -151 -4 0
-1061 -151 -25 0
-1061 -151 -32 0
-1061 -151 -39 0
-1061 -151 -11 -158 0
-1061 -151 -18 -158 0
-1061 -151 -53 -179 0
-1061 -151 -60 -179 0
-1061 -151 -123 -221 0
-1061 -151 -130 -221 0
-1061 -151 -137 -221 0
-1061 -151 284 410 662 305 431 683 0
-1061 -158 96 0
-1061 -158 208 0
-1061 -158 -4 0
-1061 -158 -25 0
-1061 -158 -32 0
-1061 -158 -39 0
-1061 -158 -11 -165 0
-1061 -158 -18 -165 0
-1061 -158 -53 -186 0
-1061 -158 -60 -186 0
-1061 -158 -123 -228 0
-1061 -158 -130 -228 0
-1061 -158 -137 -228 0
-1061 -158 291 417 669 312 438 690 0
-1061 -95 -151 -200 0
-1061 -95 -158 -207 0
-1067 249 0
-1067 -165 0
-1067 -151 103 0
-1067 -151 201 0
-1067 -151 -4 0
-1067 -151 -11 0
-1067 -151 -32 0
-1067 -151 -39 0
-1067 -151 -18 -158 0
-1067 -151 -25 -158 0
-1067 -151 -60 -179 0
-1067 -151 -67 -179 0
-1067 -151 -123 -221 0
-1067 -151 -130 -221 0
-1067 -151 -137 -221 0
-1067 -151 -144 -221 0
-1067 -151 305 431 683 326 452 704 0
-1067 -158 103 0
-1067 -158 208 0
-1067 -158 -4 0
-1067 -158 -11 0
-1067 -158 -32 0
-1067 -158 -39 0
-1067 -158 -18 -165 0
-1067 -158 -25 -165 0
-1067 -158 -60 -186 0
-1067 -158 -67 -186 0
-1067 -158 -123 -228 0
-1067 -158 -130 -228 0
-1067 -158 -137 -228 0
-1067 -158 -144 -228 0
-1067 -158 312 438 690 333 459 711 0
-1067 -102 -151 -200 0
-1067 -102 -158 -207 0
-1073 249 0
-1073 -165 0
-1073 -151 110 0
-1073 -151 201 0
-1073 -151 -4 0
-1073 -151 -11 0
-1073 -151 -18 0
-1073 -151 -39 0
-1073 -151 -25 -158 0
-1073 -151 -32 -158 0
-1073 -151 -67 -179 0
-1073 -151 -74 -179 0
-1073 -151 -130 -221 0
-1073 -151 -137 -221 0
-1073 -151 -144 -221 0
-1073 -151 326 452 704 347 473 725 0
-1073 -158 110 0
-1073 -158 208 0
-1073 -158 -4 0
-1073 -158 -11 0
-1073 -158 -18 0
-1073 -158 -39 0
-1073 -158 -25 -165 0
-1073 -158 -32 -165 0
-1073 -158 -67 -186 0
-1073 -158 -74 -186 0
-1073 -158 -130 -228 0
-1073 -158 -137 -228 0
-1073 -158 -144 -228 0
-1073 -158 333 459 711 354 480 732 0
-1073 -109 -151 -200 0
-1073 -109 -158 -207 0
-1079 249 0
-1079 -165 0
-1079 -151 117 0
-1079 -151 201 0
-1079 -151 -4 0
-1079 -151 -11 0
-1079 -151 -18 0
-1079 -151 -25 0
-1079 -151 -32 -158 0
-1079 -151 -39 -158 0
-1079 -151 -74 -179 0
-1079 -151 -81 -179 0
-1079 -151 -137 -221 0
-1079 -151 -144 -221 0
-1079 -151 347 473 725 368 494 746 0
-1079 -158 117 0
-1079 -158 208 0
-1079 -158 -4 0
-1079 -158 -11 0
-1079 -158 -18 0
-1079 -158 -25 0
-1079 -158 -32 -165 0
-1079 -158 -39 -165 0
-1079 -158 -74 -186 0
-1079 -158 -81 -186 0
-1079 -158 -137 -228 0
-1079 -158 -144 -228 0
-1079 -158 354 480 732 375 501 753 0
-1079 -116 -151 -200 0
-1079 -116 -158 -207 0
-1085 249 0
-1085 -186 0
-1085 -172 89 0
-1085 -172 201 0
-1085 -172 -60 0
-1085 -172 -67 0
-1085 -172 -74 0
-1085 -172 -81 0
-1085 -172 -4 -158 0
-1085 -172 -11 -158 0
-1085 -172 -46 -179 0
-1085 -172 -53 -179 0
-1085 -172 -123 -221 0
-1085 -172 -130 -221 0
-1085 -172 263 389 641 284 410 662 0
-1085 -179 89 0
-1085 -179 208 0
-1085 -179 -60 0
-1085 -179 -67 0
-1085 -179 -74 0
-1085 -179 -81 0
-1085 -179 -4 -165 0
-1085 -179 -11 -165 0
-1085 -179 -46 -186 0
-1085 -179 -53 -186 0
-1085 -179 -123 -228 0
-1085 -179 -130 -228 0
-1085 -179 270 396 648 291 417 669 0
-1085 -88 -172 -200 0
-1085 -88 -179 -207 0
-1091 249 0
-1091 -186 0
-1091 -172 96 0
-1091 -172 201 0
-1091 -172 -46 0
-1091 -172 -67 0
-1091 -172 -74 0
-1091 -172 -81 0
-1091 -172 -11 -158 0
-1091 -172 -18 -158 0
-1091 -172 -53 -179 0
-1091 -172 -60 -179 0
-1091 -172 -123 -221 0
-1091 -172 -130 -221 0
-1091 -172 -137 -221 0
-1091 -172 284 410 662 305 431 683 0
-1091 -179 96 0
-1091 -179 208 0
-1091 -179 -46 0
-1091 -179 -67 0
-1091 -179 -74 0
-1091 -179 -81 0
-1091 -179 -11 -165 0
-1091 -179 -18 -165 0
-1091 -179 -53 -186 0
-1091 -179 -60 -186 0
-1091 -179 -123 -228 0
-1091 -179 -130 -228 0
-1091 -179 -137 -228 0
-1091 -179 291 417 669 312 438 690 0
-1091 -95 -172 -200 0
-1091 -95 -179 -207 0
-1097 249 0
-1097 -186 0
-1097 -172 103 0
-1097 -172 201 0
-1097 -172 -46 0
-1097 -172 -53 0
-1097 -172 -74 0
-1097 -172 -81 0
-1097 -172 -18 -158 0
-1097 -172 -25 -158 0
-1097 -172 -60 -179 0
-1097 -172 -67 -179 0
-1097 -172 -123 -221 0
-1097 -172 -130 -221 0
-1097 -172 -137 -221 0
-1097 -172 -144 -221 0
-1097 -172 305 431 683 326 452 704 0
-1097 -179 103 0
-1097 -179 208 0
-1097 -179 -46 0
-1097 -179 -53 0
-1097 -179 -74 0
-1097 -179 -81 0
-1097 -179 -18 -165 0
-1097 -179 -25 -165 0
-1097 -179 -60 -186 0
-1097 -179 -67 -186 0
-1097 -179 -123 -228 0
-1097 -179 -130 -228 0
-1097 -179 -137 -228 0
-1097 -179 -144 -228 0
-1097 -179 312 438 690 333 459 711 0
-1097 -102 -172 -200 0
-1097 -102 -179 -207 0
-1103 249 0
-1103 -186 0
-1103 -172 110 0
-1103 -172 201 0
-1103 -172 -46 0
-1103 -172 -53 0
-1103 -172 -60 0
-1103 -172 -81 0
-1103 -172 -25 -158 0
-1103 -172 -32 -158 0
-1103 -172 -67 -179 0
-1103 -172 -74 -179 0
-1103 -172 -130 -221 0
-1103 -172 -137 -221 0
-1103 -172 -144 -221 0
-1103 -172 326 452 704 347 473 725 0
-1103 -179 110 0
-1103 -179 208 0
-1103 -179 -46 0
-1103 -179 -53 0
-1103 -179 -60 0
-1103 -179 -81 0
-1103 -179 -25 -165 0
-1103 -179 -32 -165 0
-1103 -179 -67 -186 0
-1103 -179 -74 -186 0
-1103 -179 -130 -228 0
-1103 -179 -137 -228 0
-1103 -179 -144 -228 0
-1103 -179 333 459 711 354 480 732 0
-1103 -109 -172 -200 0
-1103 -109 -179 -207 0
-1109 249 0
-1109 -186 0
-1109 -172 117 0
-1109 -172 201 0
-1109 -172 -46 0
-1109 -172 -53 0
-1109 -172 -60 0
-1109 -172 -67 0
-1109 -172 -32 -158 0
-1109 -172 -39 -158 0
-1109 -172 -74 -179 0
-1109 -172 -81 -179 0
-1109 -172 -137 -221 0
-1109 -172 -144 -221 0
-1109 -172 347 473 725 368 494 746 0
-1109 -179 117 0
-1109 -179 208 0
-1109 -179 -46 0
-1109 -179 -53 0
-1109 -179 -60 0
-1109 -179 -67 0
-1109 -179 -32 -165 0
-1109 -179 -39 -165 0
-1109 -179 -74 -186 0
-1109 -179 -81 -186 0
-1109 -179 -137 -228 0
-1109 -179 -144 -228 0
-1109 -179 354 480 732 375 501 753 0
-1109 -116 -172 -200 0
-1109 -116 -179 -207 0
-1115 249 0
-1115 -228 0
-1115 -214 89 0
-1115 -214 201 0
-1115 -214 -137 0
-1115 -214 -144 0
-1115 -214 -4 -158 0
-1115 -214 -11 -158 0
-1115 -214 -46 -179 0
-1115 -214 -53 -179 0
-1115 -214 -123 -221 0
-1115 -214 -130 -221 0
-1115 -214 263 389 641 284 410 662 0
-1115 -221 89 0
-1115 -221 208 0
-1115 -221 -137 0
-1115 -221 -144 0
-1115 -221 -4 -165 0
-1115 -221 -11 -165 0
-1115 -221 -46 -186 0
-1115 -221 -53 -186 0
-1115 -221 -123 -228 0
-1115 -221 -130 -228 0
-1115 -221 270 396 648 291 417 669 0
-1115 -88 -214 -200 0
-1115 -88 -221 -207 0
-1121 249 0
-1121 -228 0
-1121 -214 96 0
-1121 -214 201 0
-1121 -214 -144 0
-1121 -214 -11 -158 0
-1121 -214 -18 -158 0
-1121 -214 -53 -179 0
-1121 -214 -60 -179 0
-1121 -214 -123 -221 0
-1121 -214 -130 -221 0
-1121 -214 -137 -221 0
-1121 -214 284 410 662 305 431 683 0
-1121 -221 96 0
-1121 -221 208 0
-1121 -221 -144 0
-1121 -221 -11 -165 0
-1121 -221 -18 -165 0
-1121 -221 -53 -186 0
-1121 -221 -60 -186 0
-1121 -221 -123 -228 0
-1121 -221 -130 -228 0
-1121 -221 -137 -228 0
-1121 -221 291 417 669 312 438 690 0
-1121 -95 -214 -200 0
-1121 -95 -221 -207 0
-1127 249 0
-1127 -228 0
-1127 -214 103 0
-1127 -214 201 0
-1127 -214 -18 -158 0
-1127 -214 -25 -158 0
-1127 -214 -60 -179 0
-1127 -214 -67 -179 0
-1127 -214 -123 -221 0
-1127 -214 -130 -221 0
-1127 -214 -137 -221 0
-1127 -214 -144 -221 0
-1127 -214 305 431 683 326 452 704 0
-1127 -221 103 0
-1127 -221 208 0
-1127 -221 -18 -165 0
-1127 -221 -25 -165 0
-1127 -221 -60 -186 0
-1127 -221 -67 -186 0
-1127 -221 -123 -228 0
-1127 -221 -130 -228 0
-1127 -221 -137 -228 0
-1127 -221 -144 -228 0
-1127 -221 312 438 690 333 459 711 0
-1127 -102 -214 -200 0
-1127 -102 -221 -207 0
-1133 249 0
-1133 -228 0
-1133 -214 110 0
-1133 -214 201 0
-1133 -214 -123 0
-1133 -214 -25 -158 0
-1133 -214 -32 -158 0
-1133 -214 -67 -179 0
-1133 -214 -74 -179 0
-1133 -214 -130 -221 0
-1133 -214 -137 -221 0
-1133 -214 -144 -221 0
-1133 -214 326 452 704 347 473 725 0
-1133 -221 110 0
-1133 -221 208 0
-1133 -221 -123 0
-1133 -221 -25 -165 0
-1133 -221 -32 -165 0
-1133 -221 -67 -186 0
-1133 -221 -74 -186 0
-1133 -221 -130 -228 0
-1133 -221 -137 -228 0
-1133 -221 -144 -228 0
-1133 -221 333 459 711 354 480 732 0
-1133 -109 -214 -200 0
-1133 -109 -221 -207 0
-1139 249 0
-1139 -228 0
-1139 -214 117 0
-1139 -214 201 0
-1139 -214 -123 0
-1139 -214 -130 0
-1139 -214 -32 -158 0
-1139 -214 -39 -158 0
-1139 -214 -74 -179 0
-1139 -214 -81 -179 0
-1139 -214 -137 -221 0
-1139 -214 -144 -221 0
-1139 -214 347 473 725 368 494 746 0
-1139 -221 117 0
-1139 -221 208 0
-1139 -221 -123 0
-1139 -221 -130 0
-1139 -221 -32 -165 0
-1139 -221 -39 -165 0
-1139 -221 -74 -186 0
-1139 -221 -81 -186 0
-1139 -221 -137 -228 0
-1139 -221 -144 -228 0
-1139 -221 354 480 732 375 501 753 0
-1139 -116 -214 -200 0
-1139 -116 -221 -207 0
-1145 249 0
-1145 89 0
-1145 194 0
-1145 -88 -193 0
-1145 -4 -151 0
-1145 -11 -151 0
-1145 -46 -172 0
-1145 -53 -172 0
-1145 -123 -214 0
-1145 -130 -214 0
-1151 249 0
-1151 96 0
-1151 194 0
-1151 -95 -193 0
-1151 -11 -151 0
-1151 -18 -151 0
-1151 -53 -172 0
-1151 -60 -172 0
-1151 -123 -214 0
-1151 -130 -214 0
-1151 -137 -214 0
-1157 249 0
-1157 103 0
-1157 194 0
-1157 -102 -193 0
-1157 -18 -151 0
-1157 -25 -151 0
-1157 -60 -172 0
-1157 -67 -172 0
-1157 -123 -214 0
-1157 -130 -214 0
-1157 -137 -214 0
-1157 -144 -214 0
-1163 249 0
-1163 110 0
-1163 194 0
-1163 -109 -193 0
-1163 -25 -151 0
-1163 -32 -151 0
-1163 -67 -172 0
-1163 -74 -172 0
-1163 -130 -214 0
-1163 -137 -214 0
-1163 -144 -214 0
-1169 249 0
-1169 117 0
-1169 194 0
-1169 -116 -193 0
-1169 -32 -151 0
-1169 -39 -151 0
-1169 -74 -172 0
-1169 -81 -172 0
-1169 -137 -214 0
-1169 -144 -214 0
-1175 256 0
-1175 -165 0
-1175 -151 124 0
-1175 -151 222 0
-1175 -151 -25 0
-1175 -151 -32 0
-1175 -151 -39 0
-1175 -151 -4 -158 0
-1175 -151 -11 -158 0
-1175 -151 -18 -158 0
-1175 -151 -46 -179 0
-1175 -151 -53 -179 0
-1175 -151 -60 -179 0
-1175 -151 -88 -200 0
-1175 -151 -95 -200 0
-1175 -151 -102 -200 0
-1175 -151 263 389 515 284 410 536 0
-1175 -151 263 389 515 305 431 557 0
-1175 -151 284 410 536 305 431 557 0
-1175 -158 124 0
-1175 -158 229 0
-1175 -158 -25 0
-1175 -158 -32 0
-1175 -158 -39 0
-1175 -158 -4 -165 0
-1175 -158 -11 -165 0
-1175 -158 -18 -165 0
-1175 -158 -46 -186 0
-1175 -158 -53 -186 0
-1175 -158 -60 -186 0
-1175 -158 -88 -207 0
-1175 -158 -95 -207 0
-1175 -158 -102 -207 0
-1175 -158 270 396 522 291 417 543 0
-1175 -158 270 396 522 312 438 564 0
-1175 -158 291 417 543 312 438 564 0
-1175 -123 -151 -221 0
-1175 -123 -158 -228 0
-1181 256 0
-1181 -165 0
-1181 -151 131 0
-1181 -151 222 0
-1181 -151 -4 0
-1181 -151 -32 0
-1181 -151 -39 0
-1181 -151 -11 -158 0
-1181 -151 -18 -158 0
-1181 -151 -25 -158 0
-1181 -151 -53 -179 0
-1181 -151 -60 -179 0
-1181 -151 -67 -179 0
-1181 -151 -88 -200 0
-1181 -151 -95 -200 0
-1181 -151 -102 -200 0
-1181 -151 -109 -200 0
-1181 -151 284 410 536 305 431 557 0
-1181 -151 284 410 536 326 452 578 0
-1181 -151 305 431 557 326 452 578 0
-1181 -158 131 0
-1181 -158 229 0
-1181 -158 -4 0
-1181 -158 -32 0
-1181 -158 -39 0
-1181 -158 -11 -165 0
-1181 -158 -18 -165 0
-1181 -158 -25 -165 0
-1181 -158 -53 -186 0
-1181 -158 -60 -186 0
-1181 -158 -67 -186 0
-1181 -158 -88 -207 0
-1181 -158 -95 -207 0
-1181 -158 -102 -207 0
-1181 -158 -109 -207 0
-1181 -158 291 417 543 312 438 564 0
-1181 -158 291 417 543 333 459 585 0
-1181 -158 312 438 564 333 459 585 0
-1181 -130 -151 -221 0
-1181 -130 -158 -228 0
-1187 256 0
-1187 -165 0
-1187 -151 138 0
-1187 -151 222 0
-1187 -151 -4 0
-1187 -151 -11 0
-1187 -151 -39 0
-1187 -151 -18 -158 0
-1187 -151 -25 -158 0
-1187 -151 -32 -158 0
-1187 -151 -60 -179 0
-1187 -151 -67 -179 0
-1187 -151 -74 -179 0
-1187 -151 -95 -200 0
-1187 -151 -102 -200 0
-1187 -151 -109 -200 0
-1187 -151 -116 -200 0
-1187 -151 305 431 557 326 452 578 0
-1187 -151 305 431 557 347 473 599 0
-1187 -151 326 452 578 347 473 599 0
-1187 -158 138 0
-1187 -158 229 0
-1187 -158 -4 0
-1187 -158 -11 0
-1187 -158 -39 0
-1187 -158 -18 -165 0
-1187 -158 -25 -165 0
-1187 -158 -32 -165 0
-1187 -158 -60 -186 0
-1187 -158 -67 -186 0
-1187 -158 -74 -186 0
-1187 -158 -95 -207 0
-1187 -158 -102 -207 0
-1187 -158 -109 -207 0
-1187 -158 -116 -207 0
-1187 -158 312 438 564 333 459 585 0
-1187 -158 312 438 564 354 480 606 0
-1187 -158 333 459 585 354 480 606 0
-1187 -137 -151 -221 0
-1187 -137 -158 -228 0
-1193 256 0
-1193 -165 0
-1193 -151 145 0
-1193 -151 222 0
-1193 -151 -4 0
-1193 -151 -11 0
-1193 -151 -18 0
-1193 -151 -25 -158 0
-1193 -151 -32 -158 0
-1193 -151 -39 -158 0
-1193 -151 -67 -179 0
-1193 -151 -74 -179 0
-1193 -151 -81 -179 0
-1193 -151 -102 -200 0
-1193 -151 -109 -200 0
-1193 -151 -116 -200 0
-1193 -151 326 452 578 347 473 599 0
-1193 -151 326 452 578 368 494 620 0
-1193 -151 347 473 599 368 494 620 0
-1193 -158 145 0
-1193 -158 229 0
-1193 -158 -4 0
-1193 -158 -11 0
-1193 -158 -18 0
-1193 -158 -25 -165 0
-1193 -158 -32 -165 0
-1193 -158 -39 -165 0
-1193 -158 -67 -186 0
-1193 -158 -74 -186 0
-1193 -158 -81 -186 0
-1193 -158 -102 -207 0
-1193 -158 -109 -207 0
-1193 -158 -116 -207 0
-1193 -158 333 459 585 354 480 606 0
-1193 -158 333 459 585 375 501 627 0
-1193 -158 354 480 606 375 501 627 0
-1193 -144 -151 -221 0
-1193 -144 -158 -228 0
-1199 256 0
-1199 -186 0
-1199 -172 124 0
-1199 -172 222 0
-1199 -172 -67 0
-1199 -172 -74 0
-1199 -172 -81 0
-1199 -172 -4 -158 0
-1199 -172 -11 -158 0
-1199 -172 -18 -158 0
-1199 -172 -46 -179 0
-1199 -172 -53 -179 0
-1199 -172 -60 -179 0
-1199 -172 -88 -200 0
-1199 -172 -95 -200 0
-1199 -172 -102 -200 0
-1199 -172 263 389 515 284 410 536 0
-1199 -172 263 389 515 305 431 557 0
-1199 -172 284 410 536 305 431 557 0
-1199 -179 124 0
-1199 -179 229 0
-1199 -179 -67 0
-1199 -179 -74 0
-1199 -179 -81 0
-1199 -179 -4 -165 0
-1199 -179 -11 -165 0
-1199 -179 -18 -165 0
-1199 -179 -46 -186 0
-1199 -179 -53 -186 0
-1199 -179 -60 -186 0
-1199 -179 -88 -207 0
-1199 -179 -95 -207 0
-1199 -179 -102 -207 0
-1199 -179 270 396 522 291 417 543 0
-1199 -179 270 396 522 312 438 564 0
-1199 -179 291 417 543 312 438 564 0
-1199 -123 -172 -221 0
-1199 -123 -179 -228 0
-1205 256 0
-1205 -186 0
-1205 -172 131 0
-1205 -172 222 0
-1205 -172 -46 0
-1205 -172 -74 0
-1205 -172 -81 0
-1205 -172 -11 -158 0
-1205 -172 -18 -158 0
-1205 -172 -25 -158 0
-1205 -172 -53 -179 0
-1205 -172 -60 -179 0
-1205 -172 -67 -179 0
-1205 -172 -88 -200 0
-1205 -172 -95 -200 0
-1205 -172 -102 -200 0
-1205 -172 -109 -200 0
-1205 -172 284 410 536 305 431 557 0
-1205 -172 284 410 536 326 452 578 0
-1205 -172 305 431 557 326 452 578 0
-1205 -179 131 0
-1205 -179 229 0
-1205 -179 -46 0
-1205 -179 -74 0
-1205 -179 -81 0
-1205 -179 -11 -165 0
-1205 -179 -18 -165 0
-1205 -179 -25 -165 0
-1205 -179 -53 -186 0
-1205 -179 -60 -186 0
-1205 -179 -67 -186 0
-1205 -179 -88 -207 0
-1205 -179 -95 -207 0
-1205 -179 -102 -207 0
-1205 -179 -109 -207 0
-1205 -179 291 417 543 312 438 564 0
-1205 -179 291 417 543 333 459 585 0
-1205 -179 312 438 564 333 459 585 0
-1205 -130 -172 -221 0
-1205 -130 -179 -228 0
-1211 256 0
-1211 -186 0
-1211 -172 138 0
-1211 -172 222 0
-1211 -172 -46 0
-1211 -172 -53 0
-1211 -172 -81 0
-1211 -172 -18 -158 0
-1211 -172 -25 -158 0
-1211 -172 -32 -158 0
-1211 -172 -60 -179 0
-1211 -172 -67 -179 0
-1211 -172 -74 -179 0
-1211 -172 -95 -200 0
-1211 -172 -102 -200 0
-1211 -172 -109 -200 0
-1211 -172 -116 -200 0
-1211 -172 305 431 557 326 452 578 0
-1211 -172 305 431 557 347 473 599 0
-1211 -172 326 452 578 347 473 599 0
-1211 -179 138 0
-1211 -179 229 0
-1211 -179 -46 0
-1211 -179 -53 0
-1211 -179 -81 0
-1211 -179 -18 -165 0
-1211 -179 -25 -165 0
-1211 -179 -32 -165 0
-1211 -179 -60 -186 0
-1211 -179 -67 -186 0
-1211 -179 -74 -186 0
-1211 -179 -95 -207 0
-1211 -179 -102 -207 0
-1211 -179 -109 -207 0
-1211 -179 -116 -207 0
-1211 -179 312 438 564 333 459 585 0
-1211 -179 312 438 564 354 480 606 0
-1211 -179 333 459 585 354 480 606 0
-1211 -137 -172 -221 0
-1211 -137 -179 -228 0
-1217 256 0
-1217 -186 0
-1217 -172 145 0
-1217 -172 222 0
-1217 -172 -46 0
-1217 -172 -53 0
-1217 -172 -60 0
-1217 -172 -25 -158 0
-1217 -172 -32 -158 0
-1217 -172 -39 -158 0
-1217 -172 -67 -179 0
-1217 -172 -74 -179 0
-1217 -172 -81 -179 0
-1217 -172 -102 -200 0
-1217 -172 -109 -200 0
-1217 -172 -116 -200 0
-1217 -172 326 452 578 347 473 599 0
-1217 -172 326 452 578 368 494 620 0
-1217 -172 347 473 599 368 494 620 0
-1217 -179 145 0
-1217 -179 229 0
-1217 -179 -46 0
-1217 -179 -53 0
-1217 -179 -60 0
-1217 -179 -25 -165 0
-1217 -179 -32 -165 0
-1217 -179 -39 -165 0
-1217 -179 -67 -186 0
-1217 -179 -74 -186 0
-1217 -179 -81 -186 0
-1217 -179 -102 -207 0
-1217 -179 -109 -207 0
-1217 -179 -116 -207 0
-1217 -179 333 459 585 354 480 606 0
-1217 -179 333 459 585 375 501 627 0
-1217 -179 354 480 606 375 501 627 0
-1217 -144 -172 -221 0
-1217 -144 -179 -228 0
-1223 256 0
-1223 -207 0
-1223 -193 124 0
-1223 -193 222 0
-1223 -193 -109 0
-1223 -193 -116 0
-1223 -193 -4 -158 0
-1223 -193 -11 -158 0
-1223 -193 -18 -158 0
-1223 -193 -46 -179 0
-1223 -193 -53 -179 0
-1223 -193 -60 -179 0
-1223 -193 -88 -200 0
-1223 -193 -95 -200 0
-1223 -193 -102 -200 0
-1223 -193 263 389 515 284 410 536 0
-1223 -193 263 389 515 305 431 557 0
-1223 -193 284 410 536 305 431 557 0
-1223 -200 124 0
-1223 -200 229 0
-1223 -200 -109 0
-1223 -200 -116 0
-1223 -200 -4 -165 0
-1223 -200 -11 -165 0
-1223 -200 -18 -165 0
-1223 -200 -46 -186 0
-1223 -200 -53 -186 0
-1223 -200 -60 -186 0
-1223 -200 -88 -207 0
-1223 -200 -95 -207 0
-1223 -200 -102 -207 0
-1223 -200 270 396 522 291 417 543 0
-1223 -200 270 396 522 312 438 564 0
-1223 -200 291 417 543 312 438 564 0
-1223 -123 -193 -221 0
-1223 -123 -200 -228 0
-1229 256 0
-1229 -207 0
-1229 -193 131 0
-1229 -193 222 0
-1229 -193 -116 0
-1229 -193 -11 -158 0
-1229 -193 -18 -158 0
-1229 -193 -25 -158 0
-1229 -193 -53 -179 0
-1229 -193 -60 -179 0
-1229 -193 -67 -179 0
-1229 -193 -88 -200 0
-1229 -193 -95 -200 0
-1229 -193 -102 -200 0
-1229 -193 -109 -200 0
-1229 -193 284 410 536 305 431 557 0
-1229 -193 284 410 536 326 452 578 0
-1229 -193 305 431 557 326 452 578 0
-1229 -200 131 0
-1229 -200 229 0
-1229 -200 -116 0
-1229 -200 -11 -165 0
-1229 -200 -18 -165 0
-1229 -200 -25 -165 0
-1229 -200 -53 -186 0
-1229 -200 -60 -186 0
-1229 -200 -67 -186 0
-1229 -200 -88 -207 0
-1229 -200 -95 -207 0
-1229 -200 -102 -207 0
-1229 -200 -109 -207 0
-1229 -200 291 417 543 312 438 564 0
-1229 -200 291 417 543 333 459 585 0
-1229 -200 312 438 564 333 459 585 0
-1229 -130 -193 -221 0
-1229 -130 -200 -228 0
-1235 256 0
-1235 -207 0
-1235 -193 138 0
-1235 -193 222 0
-1235 -193 -88 0
-1235 -193 -18 -158 0
-1235 -193 -25 -158 0
-1235 -193 -32 -158 0
-1235 -193 -60 -179 0
-1235 -193 -67 -179 0
-1235 -193 -74 -179 0
-1235 -193 -95 -200 0
-1235 -193 -102 -200 0
-1235 -193 -109 -200 0
-1235 -193 -116 -200 0
-1235 -193 305 431 557 326 452 578 0
-1235 -193 305 431 557 347 473 599 0
-1235 -193 326 452 578 347 473 599 0
-1235 -200 138 0
-1235 -200 229 0
-1235 -200 -88 0
-1235 -200 -18 -165 0
-1235 -200 -25 -165 0
-1235 -200 -32 -165 0
-1235 -200 -60 -186 0
-1235 -200 -67 -186 0
-1235 -200 -74 -186 0
-1235 -200 -95 -207 0
-1235 -200 -102 -207 0
-1235 -200 -109 -207 0
-1235 -200 -116 -207 0
-1235 -200 312 438 564 333 459 585 0
-1235 -200 312 438 564 354 480 606 0
-1235 -200 333 459 585 354 480 606 0
-1235 -137 -193 -221 0
-1235 -137 -200 -228 0
-1241 256 0
-1241 -207 0
-1241 -193 145 0
-1241 -193 222 0
-1241 -193 -88 0
-1241 -193 -95 0
-1241 -193 -25 -158 0
-1241 -193 -32 -158 0
-1241 -193 -39 -158 0
-1241 -193 -67 -179 0
-1241 -193 -74 -179 0
-1241 -193 -81 -179 0
-1241 -193 -102 -200 0
-1241 -193 -109 -200 0
-1241 -193 -116 -200 0
-1241 -193 326 452 578 347 473 599 0
-1241 -193 326 452 578 368 494 620 0
-1241 -193 347 473 599 368 494 620 0
-1241 -200 145 0
-1241 -200 229 0
-1241 -200 -88 0
-1241 -200 -95 0
-1241 -200 -25 -165 0
-1241 -200 -32 -165 0
-1241 -200 -39 -165 0
-1241 -200 -67 -186 0
-1241 -200 -74 -186 0
-1241 -200 -81 -186 0
-1241 -200 -102 -207 0
-1241 -200 -109 -207 0
-1241 -200 -116 -207 0
-1241 -200 333 459 585 354 480 606 0
-1241 -200 333 459 585 375 501 627 0
-1241 -200 354 480 606 375 501 627 0
-1241 -144 -193 -221 0
-1241 -144 -200 -228 0
-1247 256 0
-1247 124 0
-1247 215 0
-1247 -123 -214 0
-1247 -4 -151 0
-1247 -11 -151 0
-1247 -18 -151 0
-1247 -46 -172 0
-1247 -53 -172 0
-1247 -60 -172 0
-1247 -88 -193 0
-1247 -95 -193 0
-1247 -102 -193 0
-1253 256 0
-1253 131 0
-1253 215 0
-1253 -130 -214 0
-1253 -11 -151 0
-1253 -18 -151 0
-1253 -25 -151 0
-1253 -53 -172 0
-1253 -60 -172 0
-1253 -67 -172 0
-1253 -88 -193 0
-1253 -95 -193 0
-1253 -102 -193 0
-1253 -109 -193 0
-1259 256 0
-1259 138 0
-1259 215 0
-1259 -137 -214 0
-1259 -18 -151 0
-1259 -25 -151 0
-1259 -32 -151 0
-1259 -60 -172 0
-1259 -67 -172 0
-1259 -74 -172 0
-1259 -95 -193 0
-1259 -102 -193 0
-1259 -109 -193 0
-1259 -116 -193 0
-1265 256 0
-1265 145 0
-1265 215 0
-1265 -144 -214 0
-1265 -25 -151 0
-1265 -32 -151 0
-1265 -39 -151 0
-1265 -67 -172 0
-1265 -74 -172 0
-1265 -81 -172 0
-1265 -102 -193 0
-1265 -109 -193 0
-1265 -116 -193 0
768 774 780 786 792 798 804 810 816 822 828 834 840 846 852 858 864 870 876 882 888 894 900 906 912 918 924 930 936 942 948 954 960 966 972 978 984 990 996 1002 1008 1014 1020 1026 1032 1038 1044 1050 1056 1062 1068 1074 1080 1086 1092 1098 1104 1110 1116 1122 1128 1134 1140 1146 1152 1158 1164 1170 1176 1182 1188 1194 1200 1206 1212 1218 1224 1230 1236 1242 1248 1254 1260 1266 0
-768 -774 0
-768 -780 0
-768 -786 0
-768 -792 0
-768 -798 0
-768 -804 0
-768 -810 0
-768 -816 0
-768 -822 0
-768 -828 0
-768 -834 0
-768 -840 0
-768 -846 0
-768 -852 0
-768 -858 0
-768 -864 0
-768 -870 0
-768 -876 0
-768 -882 0
-768 -888 0
-768 -894 0
-768 -900 0
-768 -906 0
-768 -912 0
-768 -918 0
-768 -924 0
-768 -930 0
-768 -936 0
-768 -942 0
-768 -948 0
-768 -954 0
-768 -960 0
-768 -966 0
-768 -972 0
-768 -978 0
-768 -984 0
-768 -990 0
-768 -996 0
-768 -1002 0
-768 -1008 0
-768 -1014 0
-768 -1020 0
-768 -1026 0
-768 -1032 0
-768 -1038 0
-768 -1044 0
-768 -1050 0
-768 -1056 0
-768 -1062 0
-768 -1068 0
-768 -1074 0
-768 -1080 0
-768 -1086 0
-768 -1092 0
-768 -1098 0
-768 -1104 0
-768 -1110 0
-768 -1116 0
-768 -1122 0
-768 -1128 0
-768 -1134 0
-768 -1140 0
-768 -1146 0
-768 -1152 0
-768 -1158 0
-768 -1164 0
-768 -1170 0
-768 -1176 0
-768 -1182 0
-768 -1188 0
-768 -1194 0
-768 -1200 0
-768 -1206 0
-768 -1212 0
-768 -1218 0
-768 -1224 0
-768 -1230 0
-768 -1236 0
-768 -1242 0
-768 -1248 0
-768 -1254 0
-768 -1260 0
-768 -1266 0
-774 -780 0
-774 -786 0
-774 -792 0
-774 -798 0
-774 -804 0
-774 -810 0
-774 -816 0
-774 -822 0
-774 -828 0
-774 -834 0
-774 -840 0
-774 -846 0
-774 -852 0
-774 -858 0
-774 -864 0
-774 -870 0
-774 -876 0
-774 -882 0
-774 -888 0
-774 -894 0
-774 -900 0
-774 -906 0
-774 -912 0
-774 -918 0
-774 -924 0
-774 -930 0
-774 -936 0
-774 -942 0
-774 -948 0
-774 -954 0
-774 -960 0
-774 -966 0
-774 -972 0
-774 -978 0
-774 -984 0
-774 -990 0
-774 -996 0
-774 -1002 0
-774 -1008 0
-774 -1014 0
-774 -1020 0
-774 -1026 0
-774 -1032 0
-774 -1038 0
-774 -1044 0
-774 -1050 0
-774 -1056 0
-774 -1062 0
-774 -1068 0
-774 -1074 0
-774 -1080 0
-774 -1086 0
-774 -1092 0
-774 -1098 0
-774 -1104 0
-774 -1110 0
-774 -1116 0
-774 -1122 0
-774 -1128 0
-774 -1134 0
-774 -1140 0
-774 -1146 0
-774 -1152 0
-774 -1158 0
-774 -1164 0
-774 -1170 0
-774 -1176 0
-774 -1182 0
-774 -1188 0
-774 -1194 0
-774 -1200 0
-774 -1206 0
-774 -1212 0
-774 -1218 0
-774 -1224 0
-774 -1230 0
-774 -1236 0
-774 -1242 0
-774 -1248 0
-774 -1254 0
-774 -1260 0
-774 -1266 0
-780 -786 0
-780 -792 0
-780 -798 0
-780 -804 0
-780 -810 0
-780 -816 0
-780 -822 0
-780 -828 0
-780 -834 0
-780 -840 0
-780 -846 0
-780 -852 0
-780 -858 0
-780 -864 0
-780 -870 0
-780 -876 0
-780 -882 0
-780 -888 0
-780 -894 0
-780 -900 0
-780 -906 0
-780 -912 0
-780 -918 0
-780 -924 0
-780 -930 0
-780 -936 0
-780 -942 0
-780 -948 0
-780 -954 0
-780 -960 0
-780 -966 0
-780 -972 0
-780 -978 0
-780 -984 0
-780 -990 0
-780 -996 0
-780 -1002 0
-780 -1008 0
-780 -1014 0
-780 -1020 0
-780 -1026 0
-780 -1032 0
-780 -1038 0
-780 -1044 0
-780 -1050 0
-780 -1056 0
-780 -1062 0
-780 -1068 0
-780 -1074 0
-780 -1080 0
-780 -1086 0
-780 -1092 0
-780 -1098 0
-780 -1104 0
-780 -1110 0
-780 -1116 0
-780 -1122 0
-780 -1128 0
-780 -1134 0
-780 -1140 0
-780 -1146 0
-780 -1152 0
-780 -1158 0
-780 -1164 0
-780 -1170 0
-780 -1176 0
-780 -1182 0
-780 -1188 0
-780 -1194 0
-780 -1200 0
-780 -1206 0
-780 -1212 0
-780 -1218 0
-780 -1224 0
-780 -1230 0
-780 -1236 0
-780 -1242 0
-780 -1248 0
-780 -1254 0
-780 -1260 0
-780 -1266 0
-786 -792 0
-786 -798 0
-786 -804 0
-786 -810 0
-786 -816 0
-786 -822 0
-786 -828 0
-786 -834 0
-786 -840 0
-786 -846 0
-786 -852 0
-786 -858 0
-786 -864 0
-786 -870 0
-786 -876 0
-786 -882 0
-786 -888 0
-786 -894 0
-786 -900 0
-786 -906 0
-786 -912 0
-786 -918 0
-786 -924 0
-786 -930 0
-786 -936 0
-786 -942 0
-786 -948 0
-786 -954 0
-786 -960 0
-786 -966 0
-786 -972 0
-786 -978 0
-786 -984 0
-786 -990 0
-786 -996 0
-786 -1002 0
-786 -1008 0
-786 -1014 0
-786 -1020 0
-786 -1026 0
-786 -1032 0
-786 -1038 0
-786 -1044 0
-786 -1050 0
-786 -1056 0
-786 -1062 0
-786 -1068 0
-786 -1074 0
-786 -1080 0
-786 -1086 0
-786 -1092 0
-786 -1098 0
-786 -1104 0
-786 -1110 0
-786 -1116 0
-786 -1122 0
-786 -1128 0
-786 -1134 0
-786 -1140 0
-786 -1146 0
-786 -1152 0
-786 -1158 0
-786 -1164 0
-786 -1170 0
-786 -1176 0
-786 -1182 0
-786 -1188 0
-786 -1194 0
-786 -1200 0
-786 -1206 0
-786 -1212 0
-786 -1218 0
-786 -1224 0
-786 -1230 0
-786 -1236 0
-786 -1242 0
-786 -1248 0
-786 -1254 0
-786 -1260 0
-786 -1266 0
-792 -798 0
-792 -804 0
-792 -810 0
-792 -816 0
-792 -822 0
-792 -828 0
-792 -834 0
-792 -840 0
-792 -846 0
-792 -852 0
-792 -858 0
-792 -864 0
-792 -870 0
-792 -876 0
-792 -882 0
-792 -888 0
-792 -894 0
-792 -900 0
-792 -906 0
-792 -912 0
-792 -918 0
-792 -924 0
-792 -930 0
-792 -936 0
-792 -942 0
-792 -948 0
-792 -954 0
-792 -960 0
-792 -966 0
-792 -972 0
-792 -978 0
-792 -984 0
-792 -990 0
-792 -996 0
-792 -1002 0
-792 -1008 0
-792 -1014 0
-792 -1020 0
-792 -1026 0
-792 -1032 0
-792 -1038 0
-792 -1044 0
-792 -1050 0
-792 -1056 0
-792 -1062 0
-792 -1068 0
-792 -1074 0
-792 -1080 0
-792 -1086 0
-792 -1092 0
-792 -1098 0
-792 -1104 0
-792 -1110 0
-792 -1116 0
-792 -1122 0
-792 -1128 0
-792 -1134 0
-792 -1140 0
-792 -1146 0
-792 -1152 0
-792 -1158 0
-792 -1164 0
-792 -1170 0
-792 -1176 0
-792 -1182 0
-792 -1188 0
-792 -1194 0
-792 -1200 0
-792 -1206 0
-792 -1212 0
-792 -1218 0
-792 -1224 0
-792 -1230 0
-792 -1236 0
-792 -1242 0
-792 -1248 0
-792 -1254 0
-792 -1260 0
-792 -1266 0
-798 -804 0
-798 -810 0
-798 -816 0
-798 -822 0
-798 -828 0
-798 -834 0
-798 -840 0
-798 -846 0
-798 -852 0
-798 -858 0
-798 -864 0
-798 -870 0
-798 -876 0
-798 -882 0
-798 -888 0
-798 -894 0
-798 -900 0
-798 -906 0
-798 -912 0
-798 -918 0
-798 -924 0
-798 -930 0
-798 -936 0
-798 -942 0
-798 -948 0
-798 -954 0
-798 -960 0
-798 -966 0
-798 -972 0
-798 -978 0
-798 -984 0
-798 -990 0
-798 -996 0
-798 -1002 0
-798 -1008 0
-798 -1014 0
-798 -1020 0
-798 -1026 0
-798 -1032 0
-798 -1038 0
-798 -1044 0
-798 -1050 0
-798 -1056 0
-798 -1062 0
-798 -1068 0
-798 -1074 0
-798 -1080 0
-798 -1086 0
-798 -1092 0
-798 -1098 0
-798 -1104 0
-798 -1110 0
-798 -1116 0
-798 -1122 0
-798 -1128 0
-798 -1134 0
-798 -1140 0
-798 -1146 0
-798 -1152 0
-798 -1158 0
-798 -1164 0
-798 -1170 0
-798 -1176 0
-798 -1182 0
-798 -1188 0
-798 -1194 0
-798 -1200 0
-798 -1206 0
-798 -1212 0
-798 -1218 0
-798 -1224 0
-798 -1230 0
-798 -1236 0
-798 -1242 0
-798 -1248 0
-798 -1254 0
-798 -1260 0
-798 -1266 0
-804 -810 0
-804 -816 0
-804 -822 0
-804 -828 0
-804 -834 0
-804 -840 0
-804 -846 0
-804 -852 0
-804 -858 0
-804 -864 0
-804 -870 0
-804 -876 0
-804 -882 0
-804 -888 0
-804 -894 0
-804 -900 0
-804 -906 0
-804 -912 0
-804 -918 0
-804 -924 0
-804 -930 0
-804 -936 0
-804 -942 0
-804 -948 0
-804 -954 0
-804 -960 0
-804 -966 0
-804 -972 0
-804 -978 0
-804 -984 0
-804 -990 0
-804 -996 0
-804 -1002 0
-804 -1008 0
-804 -1014 0
-804 -1020 0
-804 -1026 0
-804 -1032 0
-804 -1038 0
-804 -1044 0
-804 -1050 0
-804 -1056 0
-804 -1062 0
-804 -1068 0
-804 -1074 0
-804 -1080 0
-804 -1086 0
-804 -1092 0
-804 -1098 0
-804 -1104 0
-804 -1110 0
-804 -1116 0
-804 -1122 0
-804 -1128 0
-804 -1134 0
-804 -1140 0
-804 -1146 0
-804 -1152 0
-804 -1158 0
-804 -1164 0
-804 -1170 0
-804 -1176 0
-804 -1182 0
-804 -1188 0
-804 -1194 0
-804 -1200 0
-804 -1206 0
-804 -1212 0
-804 -1218 0
-804 -1224 0
-804 -1230 0
-804 -1236 0
-804 -1242 0
-804 -1248 0
-804 -1254 0
-804 -1260 0
-804 -1266 0
-810 -816 0
-810 -822 0
-810 -828 0
-810 -834 0
-810 -840 0
-810 -846 0
-810 -852 0
-810 -858 0
-810 -864 0
-810 -870 0
-810 -876 0
-810 -882 0
-810 -888 0
-810 -894 0
-810 -900 0
-810 -906 0
-810 -912 0
-810 -918 0
-810 -924 0
-810 -930 0
-810 -936 0
-810 -942 0
-810 -948 0
-810 -954 0
-810 -960 0
-810 -966 0
-810 -972 0
-810 -978 0
-810 -984 0
-810 -990 0
-810 -996 0
-810 -1002 0
-810 -1008 0
-810 -1014 0
-810 -1020 0
-810 -1026 0
-810 -1032 0
-810 -1038 0
-810 -1044 0
-810 -1050 0
-810 -1056 0
-810 -1062 0
-810 -1068 0
-810 -1074 0
-810 -1080 0
-810 -1086 0
-810 -1092 0
-810 -1098 0
-810 -1104 0
-810 -1110 0
-810 -1116 0
-810 -1122 0
-810 -1128 0
-810 -1134 0
-810 -1140 0
-810 -1146 0
-810 -1152 0
-810 -1158 0
-810 -1164 0
-810 -1170 0
-810 -1176 0
-810 -1182 0
-810 -1188 0
-810 -1194 0
-810 -1200 0
-810 -1206 0
-810 -1212 0
-810 -1218 0
-810 -1224 0
-810 -1230 0
-810 -1236 0
-810 -1242 0
-810 -1248 0
-810 -1254 0
-810 -1260 0
-810 -1266 0
-816 -822 0
-816 -828 0
-816 -834 0
-816 -840 0
-816 -846 0
-816 -852 0
-816 -858 0
-816 -864 0
-816 -870 0
-816 -876 0
-816 -882 0
-816 -888 0
-816 -894 0
-816 -900 0
-816 -906 0
-816 -912 0
-816 -918 0
-816 -924 0
-816 -930 0
-816 -936 0
-816 -942 0
-816 -948 0
-816 -954 0
-816 -960 0
-816 -966 0
-816 -972 0
-816 -978 0
-816 -984 0
-816 -990 0
-816 -996 0
-816 -1002 0
-816 -1008 0
-816 -1014 0
-816 -1020 0
-816 -1026 0
-816 -1032 0
-816 -1038 0
-816 -1044 0
-816 -1050 0
-816 -1056 0
-816 -1062 0
-816 -1068 0
-816 -1074 0
-816 -1080 0
-816 -1086 0
-816 -1092 0
-816 -1098 0
-816 -1104 0
-816 -1110 0
-816 -1116 0
-816 -1122 0
-816 -1128 0
-816 -1134 0
-816 -1140 0
-816 -1146 0
-816 -1152 0
-816 -1158 0
-816 -1164 0
-816 -1170 0
-816 -1176 0
-816 -1182 0
-816 -1188 0
-816 -1194 0
-816 -1200 0
-816 -1206 0
-816 -1212 0
-816 -1218 0
-816 -1224 0
-816 -1230 0
-816 -1236 0
-816 -1242 0
-816 -1248 0
-816 -1254 0
-816 -1260 0
-816 -1266 0
-822 -828 0
-822 -834 0
-822 -840 0
-822 -846 0
-822 -852 0
-822 -858 0
-822 -864 0
-822 -870 0
-822 -876 0
-822 -882 0
-822 -888 0
-822 -894 0
-822 -900 0
-822 -906 0
-822 -912 0
-822 -918 0
-822 -924 0
-822 -930 0
-822 -936 0
-822 -942 0
-822 -948 0
-822 -954 0
-822 -960 0
-822 -966 0
-822 -972 0
-822 -978 0
-822 -984 0
-822 -990 0
-822 -996 0
-822 -1002 0
-822 -1008 0
-822 -1014 0
-822 -1020 0
-822 -1026 0
-822 -1032 0
-822 -1038 0
-822 -1044 0
-822 -1050 0
-822 -1056 0
-822 -1062 0
-822 -1068 0
-822 -1074 0
-822 -1080 0
-822 -1086 0
-822 -1092 0
-822 -1098 0
-822 -1104 0
-822 -1110 0
-822 -1116 0
-822 -1122 0
-822 -1128 0
-822 -1134 0
-822 -1140 0
-822 -1146 0
-822 -1152 0
-822 -1158 0
-822 -1164 0
-822 -1170 0
-822 -1176 0
-822 -1182 0
-822 -1188 0
-822 -1194 0
-822 -1200 0
-822 -1206 0
-822 -1212 0
-822 -1218 0
-822 -1224 0
-822 -1230 0
-822 -1236 0
-822 -1242 0
-822 -1248 0
-822 -1254 0
-822 -1260 0
-822 -1266 0
-828 -834 0
-828 -840 0
-828 -846 0
-828 -852 0
-828 -858 0
-828 -864 0
-828 -870 0
-828 -876 0
-828 -882 0
-828 -888 0
-828 -894 0
-828 -900 0
-828 -906 0
-828 -912 0
-828 -918 0
-828 -924 0
-828 -930 0
-828 -936 0
-828 -942 0
-828 -948 0
-828 -954 0
-828 -960 0
-828 -966 0
-828 -972 0
-828 -978 0
-828 -984 0
-828 -990 0
-828 -996 0
-828 -1002 0
-828 -1008 0
-828 -1014 0
-828 -1020 0
-828 -1026 0
-828 -1032 0
-828 -1038 0
-828 -1044 0
-828 -1050 0
-828 -1056 0
-828 -1062 0
-828 -1068 0
-828 -1074 0
-828 -1080 0
-828 -1086 0
-828 -1092 0
-828 -1098 0
-828 -1104 0
-828 -1110 0
-828 -1116 0
-828 -1122 0
-828 -1128 0
-828 -1134 0
-828 -1140 0
-828 -1146 0
-828 -1152 0
-828 -1158 0
-828 -1164 0
-828 -1170 0
-828 -1176 0
-828 -1182 0
-828 -1188 0
-828 -1194 0
-828 -1200 0
-828 -1206 0
-828 -1212 0
-828 -1218 0
-828 -1224 0
-828 -1230 0
-828 -1236 0
-828 -1242 0
-828 -1248 0
-828 -1254 0
-828 -1260 0
-828 -1266 0
-834 -840 0
-834 -846 0
-834 -852 0
-834 -858 0
-834 -864 0
-834 -870 0
-834 -876 0
-834 -882 0
-834 -888 0
-834 -894 0
-834 -900 0
-834 -906 0
-834 -912 0
-834 -918 0
-834 -924 0
-834 -930 0
-834 -936 0
-834 -942 0
-834 -948 0
-834 -954 0
-834 -960 0
-834 -966 0
-834 -972 0
-834 -978 0
-834 -984 0
-834 -990 0
-834 -996 0
-834 -1002 0
-834 -1008 0
-834 -1014 0
-834 -1020 0
-834 -1026 0
-834 -1032 0
-834 -1038 0
-834 -1044 0
-834 -1050 0
-834 -1056 0
-834 -1062 0
-834 -1068 0
-834 -1074 0
-834 -1080 0
-834 -1086 0
-834 -1092 0
-834 -1098 0
-834 -1104 0
-834 -1110 0
-834 -1116 0
-834 -1122 0
-834 -1128 0
-834 -1134 0
-834 -1140 0
-834 -1146 0
-834 -1152 0
-834 -1158 0
-834 -1164 0
-834 -1170 0
-834 -1176 0
-834 -1182 0
-834 -1188 0
-834 -1194 0
-834 -1200 0
-834 -1206 0
-834 -1212 0
-834 -1218 0
-834 -1224 0
-834 -1230 0
-834 -1236 0
-834 -1242 0
-834 -1248 0
-834 -1254 0
-834 -1260 0
-834 -1266 0
-840 -846 0
-840 -852 0
-840 -858 0
-840 -864 0
-840 -870 0
-840 -876 0
-840 -882 0
-840 -888 0
-840 -894 0
-840 -900 0
-840 -906 0
-840 -912 0
-840 -918 0
-840 -924 0
-840 -930 0
-840 -936 0
-840 -942 0
-840 -948 0
-840 -954 0
-840 -960 0
-840 -966 0
-840 -972 0
-840 -978 0
-840 -984 0
-840 -990 0
-840 -996 0
-840 -1002 0
-840 -1008 0
-840 -1014 0
-840 -1020 0
-840 -1026 0
-840 -1032 0
-840 -1038 0
-840 -1044 0
-840 -1050 0
-840 -1056 0
-840 -1062 0
-840 -1068 0
-840 -1074 0
-840 -1080 0
-840 -1086 0
-840 -1092 0
-840 -1098 0
-840 -1104 0
-840 -1110 0
-840 -1116 0
-840 -1122 0
-840 -1128 0
-840 -1134 0
-840 -1140 0
-840 -1146 0
-840 -1152 0
-840 -1158 0
-840 -1164 0
-840 -1170 0
-840 -1176 0
-840 -1182 0
-840 -1188 0
-840 -1194 0
-840 -1200 0
-840 -1206 0
-840 -1212 0
-840 -1218 0
-840 -1224 0
-840 -1230 0
-840 -1236 0
-840 -1242 0
-840 -1248 0
-840 -1254 0
-840 -1260 0
-840 -1266 0
-846 -852 0
-846 -858 0
-846 -864 0
-846 -870 0
-846 -876 0
-846 -882 0
-846 -888 0
-846 -894 0
-846 -900 0
-846 -906 0
-846 -912 0
-846 -918 0
-846 -924 0
-846 -930 0
-846 -936 0
-846 -942 0
-846 -948 0
-846 -954 0
-846 -960 0
-846 -966 0
-846 -972 0
-846 -978 0
-846 -984 0
-846 -990 0
-846 -996 0
-846 -1002 0
-846 -1008 0
-846 -1014 0
-846 -1020 0
-846 -1026 0
-846 -1032 0
-846 -1038 0
-846 -1044 0
-846 -1050 0
-846 -1056 0
-846 -1062 0
-846 -1068 0
-846 -1074 0
-846 -1080 0
-846 -1086 0
-846 -1092 0
-846 -1098 0
-846 -1104 0
-846 -1110 0
-846 -1116 0
-846 -1122 0
-846 -1128 0
-846 -1134 0
-846 -1140 0
-846 -1146 0
-846 -1152 0
-846 -1158 0
-846 -1164 0
-846 -1170 0
-846 -1176 0
-846 -1182 0
-846 -1188 0
-846 -1194 0
-846 -1200 0
-846 -1206 0
-846 -1212 0
-846 -1218 0
-846 -1224 0
-846 -1230 0
-846 -1236 0
-846 -1242 0
-846 -1248 0
-846 -1254 0
-846 -1260 0
-846 -1266 0
-852 -858 0
-852 -864 0
-852 -870 0
-852 -876 0
-852 -882 0
-852 -888 0
-852 -894 0
-852 -900 0
-852 -906 0
-852 -912 0
-852 -918 0
-852 -924 0
-852 -930 0
-852 -936 0
-852 -942 0
-852 -948 0
-852 -954 0
-852 -960 0
-852 -966 0
-852 -972 0
-852 -978 0
-852 -984 0
-852 -990 0
-852 -996 0
-852 -1002 0
-852 -1008 0
-852 -1014 0
-852 -1020 0
-852 -1026 0
-852 -1032 0
-852 -1038 0
-852 -1044 0
-852 -1050 0
-852 -1056 0
-852 -1062 0
-852 -1068 0
-852 -1074 0
-852 -1080 0
-852 -1086 0
-852 -1092 0
-852 -1098 0
-852 -1104 0
-852 -1110 0
-852 -1116 0
-852 -1122 0
-852 -1128 0
-852 -1134 0
-852 -1140 0
-852 -1146 0
-852 -1152 0
-852 -1158 0
-852 -1164 0
-852 -1170 0
-852 -1176 0
-852 -1182 0
-852 -1188 0
-852 -1194 0
-852 -1200 0
-852 -1206 0
-852 -1212 0
-852 -1218 0
-852 -1224 0
-852 -1230 0
-852 -1236 0
-852 -1242 0
-852 -1248 0
-852 -1254 0
-852 -1260 0
-852 -1266 0
-858 -864 0
-858 -870 0
-858 -876 0
-858 -882 0
-858 -888 0
-858 -894 0
-858 -900 0
-858 -906 0
-858 -912 0
-858 -918 0
-858 -924 0
-858 -930 0
-858 -936 0
-858 -942 0
-858 -948 0
-858 -954 0
-858 -960 0
-858 -966 0
-858 -972 0
-858 -978 0
-858 -984 0
-858 -990 0
-858 -996 0
-858 -1002 0
-858 -1008 0
-858 -1014 0
-858 -1020 0
-858 -1026 0
-858 -1032 0
-858 -1038 0
-858 -1044 0
-858 -1050 0
-858 -1056 0
-858 -1062 0
-858 -1068 0
-858 -1074 0
-858 -1080 0
-858 -1086 0
-858 -1092 0
-858 -1098 0
-858 -1104 0
-858 -1110 0
-858 -1116 0
-858 -1122 0
-858 -1128 0
-858 -1134 0
-858 -1140 0
-858 -1146 0
-858 -1152 0
-858 -1158 0
-858 -1164 0
-858 -1170 0
-858 -1176 0
-858 -1182 0
-858 -1188 0
-858 -1194 0
-858 -1200 0
-858 -1206 0
-858 -1212 0
-858 -1218 0
-858 -1224 0
-858 -1230 0
-858 -1236 0
-858 -1242 0
-858 -1248 0
-858 -1254 0
-858 -1260 0
-858 -1266 0
-864 -870 0
-864 -876 0
-864 -882 0
-864 -888 0
-864 -894 0
-864 -900 0
-864 -906 0
-864 -912 0
-864 -918 0
-864 -924 0
-864 -930 0
-864 -936 0
-864 -942 0
-864 -948 0
-864 -954 0
-864 -960 0
-864 -966 0
-864 -972 0
-864 -978 0
-864 -984 0
-864 -990 0
-864 -996 0
-864 -1002 0
-864 -1008 0
-864 -1014 0
-864 -1020 0
-864 -1026 0
-864 -1032 0
-864 -1038 0
-864 -1044 0
-864 -1050 0
-864 -1056 0
-864 -1062 0
-864 -1068 0
-864 -1074 0
-864 -1080 0
-864 -1086 0
-864 -1092 0
-864 -1098 0
-864 -1104 0
-864 -1110 0
-864 -1116 0
-864 -1122 0
-864 -1128 0
-864 -1134 0
-864 -1140 0
-864 -1146 0
-864 -1152 0
-864 -1158 0
-864 -1164 0
-864 -1170 0
-864 -1176 0
-864 -1182 0
-864 -1188 0
-864 -1194 0
-864 -1200 0
-864 -1206 0
-864 -1212 0
-864 -1218 0
-864 -1224 0
-864 -1230 0
-864 -1236 0
-864 -1242 0
-864 -1248 0
-864 -1254 0
-864 -1260 0
-864 -1266 0
-870 -876 0
-870 -882 0
-870 -888 0
-870 -894 0
-870 -900 0
-870 -906 0
-870 -912 0
-870 -918 0
-870 -924 0
-870 -930 0
-870 -936 0
-870 -942 0
-870 -948 0
-870 -954 0
-870 -960 0
-870 -966 0
-870 -972 0
-870 -978 0
-870 -984 0
-870 -990 0
-870 -996 0
-870 -1002 0
-870 -1008 0
-870 -1014 0
-870 -1020 0
-870 -1026 0
-870 -1032 0
-870 -1038 0
-870 -1044 0
-870 -1050 0
-870 -1056 0
-870 -1062 0
-870 -1068 0
-870 -1074 0
-870 -1080 0
-870 -1086 0
-870 -1092 0
-870 -1098 0
-870 -1104 0
-870 -1110 0
-870 -1116 0
-870 -1122 0
-870 -1128 0
-870 -1134 0
-870 -1140 0
-870 -1146 0
-870 -1152 0
-870 -1158 0
-870 -1164 0
-870 -1170 0
-870 -1176 0
-870 -1182 0
-870 -1188 0
-870 -1194 0
-870 -1200 0
-870 -1206 0
-870 -1212 0
-870 -1218 0
-870 -1224 0
-870 -1230 0
-870 -1236 0
-870 -1242 0
-870 -1248 0
-870 -1254 0
-870 -1260 0
-870 -1266 0
-876 -882 0
-876 -888 0
-876 -894 0
-876 -900 0
-876 -906 0
-876 -912 0
-876 -918 0
-876 -924 0
-876 -930 0
-876 -936 0
-876 -942 0
-876 -948 0
-876 -954 0
-876 -960 0
-876 -966 0
-876 -972 0
-876 -978 0
-876 -984 0
-876 -990 0
-876 -996 0
-876 -1002 0
-876 -1008 0
-876 -1014 0
-876 -1020 0
-876 -1026 0
-876 -1032 0
-876 -1038 0
-876 -1044 0
-876 -1050 0
-876 -1056 0
-876 -1062 0
-876 -1068 0
-876 -1074 0
-876 -1080 0
-876 -1086 0
-876 -1092 0
-876 -1098 0
-876 -1104 0
-876 -1110 0
-876 -1116 0
-876 -1122 0
-876 -1128 0
-876 -1134 0
-876 -1140 0
-876 -1146 0
-876 -1152 0
-876 -1158 0
-876 -1164 0
-876 -1170 0
-876 -1176 0
-876 -1182 0
-876 -1188 0
-876 -1194 0
-876 -1200 0
-876 -1206 0
-876 -1212 0
-876 -1218 0
-876 -1224 0
-876 -1230 0
-876 -1236 0
-876 -1242 0
-876 -1248 0
-876 -1254 0
-876 -1260 0
-876 -1266 0
-882 -888 0
-882 -894 0
-882 -900 0
-882 -906 0
-882 -912 0
-882 -918 0
-882 -924 0
-882 -930 0
-882 -936 0
-882 -942 0
-882 -948 0
-882 -954 0
-882 -960 0
-882 -966 0
-882 -972 0
-882 -978 0
-882 -984 0
-882 -990 0
-882 -996 0
-882 -1002 0
-882 -1008 0
-882 -1014 0
-882 -1020 0
-882 -1026 0
-882 -1032 0
-882 -1038 0
-882 -1044 0
-882 -1050 0
-882 -1056 0
-882 -1062 0
-882 -1068 0
-882 -1074 0
-882 -1080 0
-882 -1086 0
-882 -1092 0
-882 -1098 0
-882 -1104 0
-882 -1110 0
-882 -1116 0
-882 -1122 0
-882 -1128 0
-882 -1134 0
-882 -1140 0
-882 -1146 0
-882 -1152 0
-882 -1158 0
-882 -1164 0
-882 -1170 0
-882 -1176 0
-882 -1182 0
-882 -1188 0
-882 -1194 0
-882 -1200 0
-882 -1206 0
-882 -1212 0
-882 -1218 0
-882 -1224 0
-882 -1230 0
-882 -1236 0
-882 -1242 0
-882 -1248 0
-882 -1254 0
-882 -1260 0
-882 -1266 0
-888 -894 0
-888 -900 0
-888 -906 0
-888 -912 0
-888 -918 0
-888 -924 0
-888 -930 0
-888 -936 0
-888 -942 0
-888 -948 0
-888 -954 0
-888 -960 0
-888 -966 0
-888 -972 0
-888 -978 0
-888 -984 0
-888 -990 0
-888 -996 0
-888 -1002 0
-888 -1008 0
-888 -1014 0
-888 -1020 0
-888 -1026 0
-888 -1032 0
-888 -1038 0
-888 -1044 0
-888 -1050 0
-888 -1056 0
-888 -1062 0
-888 -1068 0
-888 -1074 0
-888 -1080 0
-888 -1086 0
-888 -1092 0
-888 -1098 0
-888 -1104 0
-888 -1110 0
-888 -1116 0
-888 -1122 0
-888 -1128 0
-888 -1134 0
-888 -1140 0
-888 -1146 0
-888 -1152 0
-888 -1158 0
-888 -1164 0
-888 -1170 0
-888 -1176 0
-888 -1182 0
-888 -1188 0
-888 -1194 0
-888 -1200 0
-888 -1206 0
-888 -1212 0
-888 -1218 0
-888 -1224 0
-888 -1230 0
-888 -1236 0
-888 -1242 0
-888 -1248 0
-888 -1254 0
-888 -1260 0
-888 -1266 0
-894 -900 0
-894 -906 0
-894 -912 0
-894 -918 0
-894 -924 0
-894 -930 0
-894 -936 0
-894 -942 0
-894 -948 0
-894 -954 0
-894 -960 0
-894 -966 0
-894 -972 0
-894 -978 0
-894 -984 0
-894 -990 0
-894 -996 0
-894 -1002 0
-894 -1008 0
-894 -1014 0
-894 -1020 0
-894 -1026 0
-894 -1032 0
-894 -1038 0
-894 -1044 0
-894 -1050 0
-894 -1056 0
-894 -1062 0
-894 -1068 0
-894 -1074 0
-894 -1080 0
-894 -1086 0
-894 -1092 0
-894 -1098 0
-894 -1104 0
-894 -1110 0
-894 -1116 0
-894 -1122 0
-894 -1128 0
-894 -1134 0
-894 -1140 0
-894 -1146 0
-894 -1152 0
-894 -1158 0
-894 -1164 0
-894 -1170 0
-894 -1176 0
-894 -1182 0
-894 -1188 0
-894 -1194 0
-894 -1200 0
-894 -1206 0
-894 -1212 0
-894 -1218 0
-894 -1224 0
-894 -1230 0
-894 -1236 0
-894 -1242 0
-894 -1248 0
-894 -1254 0
-894 -1260 0
-894 -1266 0
-900 -906 0
-900 -912 0
-900 -918 0
-900 -924 0
-900 -930 0
-900 -936 0
-900 -942 0
-900 -948 0
-900 -954 0
-900 -960 0
-900 -966 0
-900 -972 0
-900 -978 0
-900 -984 0
-900 -990 0
-900 -996 0
-900 -1002 0
-900 -1008 0
-900 -1014 0
-900 -1020 0
-900 -1026 0
-900 -1032 0
-900 -1038 0
-900 -1044 0
-900 -1050 0
-900 -1056 0
-900 -1062 0
-900 -1068 0
-900 -1074 0
-900 -1080 0
-900 -1086 0
-900 -1092 0
-900 -1098 0
-900 -1104 0
-900 -1110 0
-900 -1116 0
-900 -1122 0
-900 -1128 0
-900 -1134 0
-900 -1140 0
-900 -1146 0
-900 -1152 0
-900 -1158 0
-900 -1164 0
-900 -1170 0
-900 -1176 0
-900 -1182 0
-900 -1188 0
-900 -1194 0
-900 -1200 0
-900 -1206 0
-900 -1212 0
-900 -1218 0
-900 -1224 0
-900 -1230 0
-900 -1236 0
-900 -1242 0
-900 -1248 0
-900 -1254 0
-900 -1260 0
-900 -1266 0
-906 -912 0
-906 -918 0
-906 -924 0
-906 -930 0
-906 -936 0
-906 -942 0
-906 -948 0
-906 -954 0
-906 -960 0
-906 -966 0
-906 -972 0
-906 -978 0
-906 -984 0
-906 -990 0
-906 -996 0
-906 -1002 0
-906 -1008 0
-906 -1014 0
-906 -1020 0
-906 -1026 0
-906 -1032 0
-906 -1038 0
-906 -1044 0
-906 -1050 0
-906 -1056 0
-906 -1062 0
-906 -1068 0
-906 -1074 0
-906 -1080 0
-906 -1086 0
-906 -1092 0
-906 -1098 0
-906 -1104 0
-906 -1110 0
-906 -1116 0
-906 -1122 0
-906 -1128 0
-906 -1134 0
-906 -1140 0
-906 -1146 0
-906 -1152 0
-906 -1158 0
-906 -1164 0
-906 -1170 0
-906 -1176 0
-906 -1182 0
-906 -1188 0
-906 -1194 0
-906 -1200 0
-906 -1206 0
-906 -1212 0
-906 -1218 0
-906 -1224 0
-906 -1230 0
-906 -1236 0
-906 -1242 0
-906 -1248 0
-906 -1254 0
-906 -1260 0
-906 -1266 0
-912 -918 0
-912 -924 0
-912 -930 0
-912 -936 0
-912 -942 0
-912 -948 0
-912 -954 0
-912 -960 0
-912 -966 0
-912 -972 0
-912 -978 0
-912 -984 0
-912 -990 0
-912 -996 0
-912 -1002 0
-912 -1008 0
-912 -1014 0
-912 -1020 0
-912 -1026 0
-912 -1032 0
-912 -1038 0
-912 -1044 0
-912 -1050 0
-912 -1056 0
-912 -1062 0
-912 -1068 0
-912 -1074 0
-912 -1080 0
-912 -1086 0
-912 -1092 0
-912 -1098 0
-912 -1104 0
-912 -1110 0
-912 -1116 0
-912 -1122 0
-912 -1128 0
-912 -1134 0
-912 -1140 0
-912 -1146 0
-912 -1152 0
-912 -1158 0
-912 -1164 0
-912 -1170 0
-912 -1176 0
-912 -1182 0
-912 -1188 0
-912 -1194 0
-912 -1200 0
-912 -1206 0
-912 -1212 0
-912 -1218 0
-912 -1224 0
-912 -1230 0
-912 -1236 0
-912 -1242 0
-912 -1248 0
-912 -1254 0
-912 -1260 0
-912 -1266 0
-918 -924 0
-918 -930 0
-918 -936 0
-918 -942 0
-918 -948 0
-918 -954 0
-918 -960 0
-918 -966 0
-918 -972 0
-918 -978 0
-918 -984 0
-918 -990 0
-918 -996 0
-918 -1002 0
-918 -1008 0
-918 -1014 0
-918 -1020 0
-918 -1026 0
-918 -1032 0
-918 -1038 0
-918 -1044 0
-918 -1050 0
-918 -1056 0
-918 -1062 0
-918 -1068 0
-918 -1074 0
-918 -1080 0
-918 -1086 0
-918 -1092 0
-918 -1098 0
-918 -1104 0
-918 -1110 0
-918 -1116 0
-918 -1122 0
-918 -1128 0
-918 -1134 0
-918 -1140 0
-918 -1146 0
-918 -1152 0
-918 -1158 0
-918 -1164 0
-918 -1170 0
-918 -1176 0
-918 -1182 0
-918 -1188 0
-918 -1194 0
-918 -1200 0
-918 -1206 0
-918 -1212 0
-918 -1218 0
-918 -1224 0
-918 -1230 0
-918 -1236 0
-918 -1242 0
-918 -1248 0
-918 -1254 0
-918 -1260 0
-918 -1266 0
-924 -930 0
-924 -936 0
-924 -942 0
-924 -948 0
-924 -954 0
-924 -960 0
-924 -966 0
-924 -972 0
-924 -978 0
-924 -984 0
-924 -990 0
-924 -996 0
-924 -1002 0
-924 -1008 0
-924 -1014 0
-924 -1020 0
-924 -1026 0
-924 -1032 0
-924 -1038 0
-924 -1044 0
-924 -1050 0
-924 -1056 0
-924 -1062 0
-924 -1068 0
-924 -1074 0
-924 -1080 0
-924 -1086 0
-924 -1092 0
-924 -1098 0
-924 -1104 0
-924 -1110 0
-924 -1116 0
-924 -1122 0
-924 -1128 0
-924 -1134 0
-924 -1140 0
-924 -1146 0
-924 -1152 0
-924 -1158 0
-924 -1164 0
-924 -1170 0
-924 -1176 0
-924 -1182 0
-924 -1188 0
-924 -1194 0
-924 -1200 0
-924 -1206 0
-924 -1212 0
-924 -1218 0
-924 -1224 0
-924 -1230 0
-924 -1236 0
-924 -1242 0
-924 -1248 0
-924 -1254 0
-924 -1260 0
-924 -1266 0
-930 -936 0
-930 -942 0
-930 -948 0
-930 -954 0
-930 -960 0
-930 -966 0
-930 -972 0
-930 -978 0
-930 -984 0
-930 -990 0
-930 -996 0
-930 -1002 0
-930 -1008 0
-930 -1014 0
-930 -1020 0
-930 -1026 0
-930 -1032 0
-930 -1038 0
-930 -1044 0
-930 -1050 0
-930 -1056 0
-930 -1062 0
-930 -1068 0
-930 -1074 0
-930 -1080 0
-930 -1086 0
-930 -1092 0
-930 -1098 0
-930 -1104 0
-930 -1110 0
-930 -1116 0
-930 -1122 0
-930 -1128 0
-930 -1134 0
-930 -1140 0
-930 -1146 0
-930 -1152 0
-930 -1158 0
-930 -1164 0
-930 -1170 0
-930 -1176 0
-930 -1182 0
-930 -1188 0
-930 -1194 0
-930 -1200 0
-930 -1206 0
-930 -1212 0
-930 -1218 0
-930 -1224 0
-930 -1230 0
-930 -1236 0
-930 -1242 0
-930 -1248 0
-930 -1254 0
-930 -1260 0
-930 -1266 0
-936 -942 0
-936 -948 0
-936 -954 0
-936 -960 0
-936 -966 0
-936 -972 0
-936 -978 0
-936 -984 0
-936 -990 0
-936 -996 0
-936 -1002 0
-936 -1008 0
-936 -1014 0
-936 -1020 0
-936 -1026 0
-936 -1032 0
-936 -1038 0
-936 -1044 0
-936 -1050 0
-936 -1056 0
-936 -1062 0
-936 -1068 0
-936 -1074 0
-936 -1080 0
-936 -1086 0
-936 -1092 0
-936 -1098 0
-936 -1104 0
-936 -1110 0
-936 -1116 0
-936 -1122 0
-936 -1128 0
-936 -1134 0
-936 -1140 0
-936 -1146 0
-936 -1152 0
-936 -1158 0
-936 -1164 0
-936 -1170 0
-936 -1176 0
-936 -1182 0
-936 -1188 0
-936 -1194 0
-936 -1200 0
-936 -1206 0
-936 -1212 0
-936 -1218 0
-936 -1224 0
-936 -1230 0
-936 -1236 0
-936 -1242 0
-936 -1248 0
-936 -1254 0
-936 -1260 0
-936 -1266 0
-942 -948 0
-942 -954 0
-942 -960 0
-942 -966 0
-942 -972 0
-942 -978 0
-942 -984 0
-942 -990 0
-942 -996 0
-942 -1002 0
-942 -1008 0
-942 -1014 0
-942 -1020 0
-942 -1026 0
-942 -1032 0
-942 -1038 0
-942 -1044 0
-942 -1050 0
-942 -1056 0
-942 -1062 0
-942 -1068 0
-942 -1074 0
-942 -1080 0
-942 -1086 0
-942 -1092 0
-942 -1098 0
-942 -1104 0
-942 -1110 0
-942 -1116 0
-942 -1122 0
-942 -1128 0
-942 -1134 0
-942 -1140 0
-942 -1146 0
-942 -1152 0
-942 -1158 0
-942 -1164 0
-942 -1170 0
-942 -1176 0
-942 -1182 0
-942 -1188 0
-942 -1194 0
-942 -1200 0
-942 -1206 0
-942 -1212 0
-942 -1218 0
-942 -1224 0
-942 -1230 0
-942 -1236 0
-942 -1242 0
-942 -1248 0
-942 -1254 0
-942 -1260 0
-942 -1266 0
-948 -954 0
-948 -960 0
-948 -966 0
-948 -972 0
-948 -978 0
-948 -984 0
-948 -990 0
-948 -996 0
-948 -1002 0
-948 -1008 0
-948 -1014 0
-948 -1020 0
-948 -1026 0
-948 -1032 0
-948 -1038 0
-948 -1044 0
-948 -1050 0
-948 -1056 0
-948 -1062 0
-948 -1068 0
-948 -1074 0
-948 -1080 0
-948 -1086 0
-948 -1092 0
-948 -1098 0
-948 -1104 0
-948 -1110 0
-948 -1116 0
-948 -1122 0
-948 -1128 0
-948 -1134 0
-948 -1140 0
-948 -1146 0
-948 -1152 0
-948 -1158 0
-948 -1164 0
-948 -1170 0
-948 -1176 0
-948 -1182 0
-948 -1188 0
-948 -1194 0
-948 -1200 0
-948 -1206 0
-948 -1212 0
-948 -1218 0
-948 -1224 0
-948 -1230 0
-948 -1236 0
-948 -1242 0
-948 -1248 0
-948 -1254 0
-948 -1260 0
-948 -1266 0
-954 -960 0
-954 -966 0
-954 -972 0
-954 -978 0
-954 -984 0
-954 -990 0
-954 -996 0
-954 -1002 0
-954 -1008 0
-954 -1014 0
-954 -1020 0
-954 -1026 0
-954 -1032 0
-954 -1038 0
-954 -1044 0
-954 -1050 0
-954 -1056 0
-954 -1062 0
-954 -1068 0
-954 -1074 0
-954 -1080 0
-954 -1086 0
-954 -1092 0
-954 -1098 0
-954 -1104 0
-954 -1110 0
-954 -1116 0
-954 -1122 0
-954 -1128 0
-954 -1134 0
-954 -1140 0
-954 -1146 0
-954 -1152 0
-954 -1158 0
-954 -1164 0
-954 -1170 0
-954 -1176 0
-954 -1182 0
-954 -1188 0
-954 -1194 0
-954 -1200 0
-954 -1206 0
-954 -1212 0
-954 -1218 0
-954 -1224 0
-954 -1230 0
-954 -1236 0
-954 -1242 0
-954 -1248 0
-954 -1254 0
-954 -1260 0
-954 -1266 0
-960 -966 0
-960 -972 0
-960 -978 0
-960 -984 0
-960 -990 0
-960 -996 0
-960 -1002 0
-960 -1008 0
-960 -1014 0
-960 -1020 0
-960 -1026 0
-960 -1032 0
-960 -1038 0
-960 -1044 0
-960 -1050 0
-960 -1056 0
-960 -1062 0
-960 -1068 0
-960 -1074 0
-960 -1080 0
-960 -1086 0
-960 -1092 0
-960 -1098 0
-960 -1104 0
-960 -1110 0
-960 -1116 0
-960 -1122 0
-960 -1128 0
-960 -1134 0
-960 -1140 0
-960 -1146 0
-960 -1152 0
-960 -1158 0
-960 -1164 0
-960 -1170 0
-960 -1176 0
-960 -1182 0
-960 -1188 0
-960 -1194 0
-960 -1200 0
-960 -1206 0
-960 -1212 0
-960 -1218 0
-960 -1224 0
-960 -1230 0
-960 -1236 0
-960 -1242 0
-960 -1248 0
-960 -1254 0
-960 -1260 0
-960 -1266 0
-966 -972 0
-966 -978 0
-966 -984 0
-966 -990 0
-966 -996 0
-966 -1002 0
-966 -1008 0
-966 -1014 0
-966 -1020 0
-966 -1026 0
-966 -1032 0
-966 -1038 0
-966 -1044 0
-966 -1050 0
-966 -1056 0
-966 -1062 0
-966 -1068 0
-966 -1074 0
-966 -1080 0
-966 -1086 0
-966 -1092 0
-966 -1098 0
-966 -1104 0
-966 -1110 0
-966 -1116 0
-966 -1122 0
-966 -1128 0
-966 -1134 0
-966 -1140 0
-966 -1146 0
-966 -1152 0
-966 -1158 0
-966 -1164 0
-966 -1170 0
-966 -1176 0
-966 -1182 0
-966 -1188 0
-966 -1194 0
-966 -1200 0
-966 -1206 0
-966 -1212 0
-966 -1218 0
-966 -1224 0
-966 -1230 0
-966 -1236 0
-966 -1242 0
-966 -1248 0
-966 -1254 0
-966 -1260 0
-966 -1266 0
-972 -978 0
-972 -984 0
-972 -990 0
-972 -996 0
-972 -1002 0
-972 -1008 0
-972 -1014 0
-972 -1020 0
-972 -1026 0
-972 -1032 0
-972 -1038 0
-972 -1044 0
-972 -1050 0
-972 -1056 0
-972 -1062 0
-972 -1068 0
-972 -1074 0
-972 -1080 0
-972 -1086 0
-972 -1092 0
-972 -1098 0
-972 -1104 0
-972 -1110 0
-972 -1116 0
-972 -1122 0
-972 -1128 0
-972 -1134 0
-972 -1140 0
-972 -1146 0
-972 -1152 0
-972 -1158 0
-972 -1164 0
-972 -1170 0
-972 -1176 0
-972 -1182 0
-972 -1188 0
-972 -1194 0
-972 -1200 0
-972 -1206 0
-972 -1212 0
-972 -1218 0
-972 -1224 0
-972 -1230 0
-972 -1236 0
-972 -1242 0
-972 -1248 0
-972 -1254 0
-972 -1260 0
-972 -1266 0
-978 -984 0
-978 -990 0
-978 -996 0
-978 -1002 0
-978 -1008 0
-978 -1014 0
-978 -1020 0
-978 -1026 0
-978 -1032 0
-978 -1038 0
-978 -1044 0
-978 -1050 0
-978 -1056 0
-978 -1062 0
-978 -1068 0
-978 -1074 0
-978 -1080 0
-978 -1086 0
-978 -1092 0
-978 -1098 0
-978 -1104 0
-978 -1110 0
-978 -1116 0
-978 -1122 0
-978 -1128 0
-978 -1134 0
-978 -1140 0
-978 -1146 0
-978 -1152 0
-978 -1158 0
-978 -1164 0
-978 -1170 0
-978 -1176 0
-978 -1182 0
-978 -1188 0
-978 -1194 0
-978 -1200 0
-978 -1206 0
-978 -1212 0
-978 -1218 0
-978 -1224 0
-978 -1230 0
-978 -1236 0
-978 -1242 0
-978 -1248 0
-978 -1254 0
-978 -1260 0
-978 -1266 0
-984 -990 0
-984 -996 0
-984 -1002 0
-984 -1008 0
-984 -1014 0
-984 -1020 0
-984 -1026 0
-984 -1032 0
-984 -1038 0
-984 -1044 0
-984 -1050 0
-984 -1056 0
-984 -1062 0
-984 -1068 0
-984 -1074 0
-984 -1080 0
-984 -1086 0
-984 -1092 0
-984 -1098 0
-984 -1104 0
-984 -1110 0
-984 -1116 0
-984 -1122 0
-984 -1128 0
-984 -1134 0
-984 -1140 0
-984 -1146 0
-984 -1152 0
-984 -1158 0
-984 -1164 0
-984 -1170 0
-984 -1176 0
-984 -1182 0
-984 -1188 0
-984 -1194 0
-984 -1200 0
-984 -1206 0
-984 -1212 0
-984 -1218 0
-984 -1224 0
-984 -1230 0
-984 -1236 0
-984 -1242 0
-984 -1248 0
-984 -1254 0
-984 -1260 0
-984 -1266 0
-990 -996 0
-990 -1002 0
-990 -1008 0
-990 -1014 0
-990 -1020 0
-990 -1026 0
-990 -1032 0
-990 -1038 0
-990 -1044 0
-990 -1050 0
-990 -1056 0
-990 -1062 0
-990 -1068 0
-990 -1074 0
-990 -1080 0
-990 -1086 0
-990 -1092 0
-990 -1098 0
-990 -1104 0
-990 -1110 0
-990 -1116 0
-990 -1122 0
-990 -1128 0
-990 -1134 0
-990 -1140 0
-990 -1146 0
-990 -1152 0
-990 -1158 0
-990 -1164 0
-990 -1170 0
-990 -1176 0
-990 -1182 0
-990 -1188 0
-990 -1194 0
-990 -1200 0
-990 -1206 0
-990 -1212 0
-990 -1218 0
-990 -1224 0
-990 -1230 0
-990 -1236 0
-990 -1242 0
-990 -1248 0
-990 -1254 0
-990 -1260 0
-990 -1266 0
-996 -1002 0
-996 -1008 0
-996 -1014 0
-996 -1020 0
-996 -1026 0
-996 -1032 0
-996 -1038 0
-996 -1044 0
-996 -1050 0
-996 -1056 0
-996 -1062 0
-996 -1068 0
-996 -1074 0
-996 -1080 0
-996 -1086 0
-996 -1092 0
-996 -1098 0
-996 -1104 0
-996 -1110 0
-996 -1116 0
-996 -1122 0
-996 -1128 0
-996 -1134 0
-996 -1140 0
-996 -1146 0
-996 -1152 0
-996 -1158 0
-996 -1164 0
-996 -1170 0
-996 -1176 0
-996 -1182 0
-996 -1188 0
-996 -1194 0
-996 -1200 0
-996 -1206 0
-996 -1212 0
-996 -1218 0
-996 -1224 0
-996 -1230 0
-996 -1236 0
-996 -1242 0
-996 -1248 0
-996 -1254 0
-996 -1260 0
-996 -1266 0
-1002 -1008 0
-1002 -1014 0
-1002 -1020 0
-1002 -1026 0
-1002 -1032 0
-1002 -1038 0
-1002 -1044 0
-1002 -1050 0
-1002 -1056 0
-1002 -1062 0
-1002 -1068 0
-1002 -1074 0
-1002 -1080 0
-1002 -1086 0
-1002 -1092 0
-1002 -1098 0
-1002 -1104 0
-1002 -1110 0
-1002 -1116 0
-1002 -1122 0
-1002 -1128 0
-1002 -1134 0
-1002 -1140 0
-1002 -1146 0
-1002 -1152 0
-1002 -1158 0
-1002 -1164 0
-1002 -1170 0
-1002 -1176 0
-1002 -1182 0
-1002 -1188 0
-1002 -1194 0
-1002 -1200 0
-1002 -1206 0
-1002 -1212 0
-1002 -1218 0
-1002 -1224 0
-1002 -1230 0
-1002 -1236 0
-1002 -1242 0
-1002 -1248 0
-1002 -1254 0
-1002 -1260 0
-1002 -1266 0
-1008 -1014 0
-1008 -1020 0
-1008 -1026 0
-1008 -1032 0
-1008 -1038 0
-1008 -1044 0
-1008 -1050 0
-1008 -1056 0
-1008 -1062 0
-1008 -1068 0
-1008 -1074 0
-1008 -1080 0
-1008 -1086 0
-1008 -1092 0
-1008 -1098 0
-1008 -1104 0
-1008 -1110 0
-1008 -1116 0
-1008 -1122 0
-1008 -1128 0
-1008 -1134 0
-1008 -1140 0
-1008 -1146 0
-1008 -1152 0
-1008 -1158 0
-1008 -1164 0
-1008 -1170 0
-1008 -1176 0
-1008 -1182 0
-1008 -1188 0
-1008 -1194 0
-1008 -1200 0
-1008 -1206 0
-1008 -1212 0
-1008 -1218 0
-1008 -1224 0
-1008 -1230 0
-1008 -1236 0
-1008 -1242 0
-1008 -1248 0
-1008 -1254 0
-1008 -1260 0
-1008 -1266 0
-1014 -1020 0
-1014 -1026 0
-1014 -1032 0
-1014 -1038 0
-1014 -1044 0
-1014 -1050 0
-1014 -1056 0
-1014 -1062 0
-1014 -1068 0
-1014 -1074 0
-1014 -1080 0
-1014 -1086 0
-1014 -1092 0
-1014 -1098 0
-1014 -1104 0
-1014 -1110 0
-1014 -1116 0
-1014 -1122 0
-1014 -1128 0
-1014 -1134 0
-1014 -1140 0
-1014 -1146 0
-1014 -1152 0
-1014 -1158 0
-1014 -1164 0
-1014 -1170 0
-1014 -1176 0
-1014 -1182 0
-1014 -1188 0
-1014 -1194 0
-1014 -1200 0
-1014 -1206 0
-1014 -1212 0
-1014 -1218 0
-1014 -1224 0
-1014 -1230 0
-1014 -1236 0
-1014 -1242 0
-1014 -1248 0
-1014 -1254 0
-1014 -1260 0
-1014 -1266 0
-1020 -1026 0
-1020 -1032 0
-1020 -1038 0
-1020 -1044 0
-1020 -1050 0
-1020 -1056 0
-1020 -1062 0
-1020 -1068 0
-1020 -1074 0
-1020 -1080 0
-1020 -1086 0
-1020 -1092 0
-1020 -1098 0
-1020 -1104 0
-1020 -1110 0
-1020 -1116 0
-1020 -1122 0
-1020 -1128 0
-1020 -1134 0
-1020 -1140 0
-1020 -1146 0
-1020 -1152 0
-1020 -1158 0
-1020 -1164 0
-1020 -1170 0
-1020 -1176 0
-1020 -1182 0
-1020 -1188 0
-1020 -1194 0
-1020 -1200 0
-1020 -1206 0
-1020 -1212 0
-1020 -1218 0
-1020 -1224 0
-1020 -1230 0
-1020 -1236 0
-1020 -1242 0
-1020 -1248 0
-1020 -1254 0
-1020 -1260 0
-1020 -1266 0
-1026 -1032 0
-1026 -1038 0
-1026 -1044 0
-1026 -1050 0
-1026 -1056 0
-1026 -1062 0
-1026 -1068 0
-1026 -1074 0
-1026 -1080 0
-1026 -1086 0
-1026 -1092 0
-1026 -1098 0
-1026 -1104 0
-1026 -1110 0
-1026 -1116 0
-1026 -1122 0
-1026 -1128 0
-1026 -1134 0
-1026 -1140 0
-1026 -1146 0
-1026 -1152 0
-1026 -1158 0
-1026 -1164 0
-1026 -1170 0
-1026 -1176 0
-1026 -1182 0
-1026 -1188 0
-1026 -1194 0
-1026 -1200 0
-1026 -1206 0
-1026 -1212 0
-1026 -1218 0
-1026 -1224 0
-1026 -1230 0
-1026 -1236 0
-1026 -1242 0
-1026 -1248 0
-1026 -1254 0
-1026 -1260 0
-1026 -1266 0
-1032 -1038 0
-1032 -1044 0
-1032 -1050 0
-1032 -1056 0
-1032 -1062 0
-1032 -1068 0
-1032 -1074 0
-1032 -1080 0
-1032 -1086 0
-1032 -1092 0
-1032 -1098 0
-1032 -1104 0
-1032 -1110 0
-1032 -1116 0
-1032 -1122 0
-1032 -1128 0
-1032 -1134 0
-1032 -1140 0
-1032 -1146 0
-1032 -1152 0
-1032 -1158 0
-1032 -1164 0
-1032 -1170 0
-1032 -1176 0
-1032 -1182 0
-1032 -1188 0
-1032 -1194 0
-1032 -1200 0
-1032 -1206 0
-1032 -1212 0
-1032 -1218 0
-1032 -1224 0
-1032 -1230 0
-1032 -1236 0
-1032 -1242 0
-1032 -1248 0
-1032 -1254 0
-1032 -1260 0
-1032 -1266 0
-1038 -1044 0
-1038 -1050 0
-1038 -1056 0
-1038 -1062 0
-1038 -1068 0
-1038 -1074 0
-1038 -1080 0
-1038 -1086 0
-1038 -1092 0
-1038 -1098 0
-1038 -1104 0
-1038 -1110 0
-1038 -1116 0
-1038 -1122 0
-1038 -1128 0
-1038 -1134 0
-1038 -1140 0
-1038 -1146 0
-1038 -1152 0
-1038 -1158 0
-1038 -1164 0
-1038 -1170 0
-1038 -1176 0
-1038 -1182 0
-1038 -1188 0
-1038 -1194 0
-1038 -1200 0
-1038 -1206 0
-1038 -1212 0
-1038 -1218 0
-1038 -1224 0
-1038 -1230 0
-1038 -1236 0
-1038 -1242 0
-1038 -1248 0
-1038 -1254 0
-1038 -1260 0
-1038 -1266 0
-1044 -1050 0
-1044 -1056 0
-1044 -1062 0
-1044 -1068 0
-1044 -1074 0
-1044 -1080 0
-1044 -1086 0
-1044 -1092 0
-1044 -1098 0
-1044 -1104 0
-1044 -1110 0
-1044 -1116 0
-1044 -1122 0
-1044 -1128 0
-1044 -1134 0
-1044 -1140 0
-1044 -1146 0
-1044 -1152 0
-1044 -1158 0
-1044 -1164 0
-1044 -1170 0
-1044 -1176 0
-1044 -1182 0
-1044 -1188 0
-1044 -1194 0
-1044 -1200 0
-1044 -1206 0
-1044 -1212 0
-1044 -1218 0
-1044 -1224 0
-1044 -1230 0
-1044 -1236 0
-1044 -1242 0
-1044 -1248 0
-1044 -1254 0
-1044 -1260 0
-1044 -1266 0
-1050 -1056 0
-1050 -1062 0
-1050 -1068 0
-1050 -1074 0
-1050 -1080 0
-1050 -1086 0
-1050 -1092 0
-1050 -1098 0
-1050 -1104 0
-1050 -1110 0
-1050 -1116 0
-1050 -1122 0
-1050 -1128 0
-1050 -1134 0
-1050 -1140 0
-1050 -1146 0
-1050 -1152 0
-1050 -1158 0
-1050 -1164 0
-1050 -1170 0
-1050 -1176 0
-1050 -1182 0
-1050 -1188 0
-1050 -1194 0
-1050 -1200 0
-1050 -1206 0
-1050 -1212 0
-1050 -1218 0
-1050 -1224 0
-1050 -1230 0
-1050 -1236 0
-1050 -1242 0
-1050 -1248 0
-1050 -1254 0
-1050 -1260 0
-1050 -1266 0
-1056 -1062 0
-1056 -1068 0
-1056 -1074 0
-1056 -1080 0
-1056 -1086 0
-1056 -1092 0
-1056 -1098 0
-1056 -1104 0
-1056 -1110 0
-1056 -1116 0
-1056 -1122 0
-1056 -1128 0
-1056 -1134 0
-1056 -1140 0
-1056 -1146 0
-1056 -1152 0
-1056 -1158 0
-1056 -1164 0
-1056 -1170 0
-1056 -1176 0
-1056 -1182 0
-1056 -1188 0
-1056 -1194 0
-1056 -1200 0
-1056 -1206 0
-1056 -1212 0
-1056 -1218 0
-1056 -1224 0
-1056 -1230 0
-1056 -1236 0
-1056 -1242 0
-1056 -1248 0
-1056 -1254 0
-1056 -1260 0
-1056 -1266 0
-1062 -1068 0
-1062 -1074 0
-1062 -1080 0
-1062 -1086 0
-1062 -1092 0
-1062 -1098 0
-1062 -1104 0
-1062 -1110 0
-1062 -1116 0
-1062 -1122 0
-1062 -1128 0
-1062 -1134 0
-1062 -1140 0
-1062 -1146 0
-1062 -1152 0
-1062 -1158 0
-1062 -1164 0
-1062 -1170 0
-1062 -1176 0
-1062 -1182 0
-1062 -1188 0
-1062 -1194 0
-1062 -1200 0
-1062 -1206 0
-1062 -1212 0
-1062 -1218 0
-1062 -1224 0
-1062 -1230 0
-1062 -1236 0
-1062 -1242 0
-1062 -1248 0
-1062 -1254 0
-1062 -1260 0
-1062 -1266 0
-1068 -1074 0
-1068 -1080 0
-1068 -1086 0
-1068 -1092 0
-1068 -1098 0
-1068 -1104 0
-1068 -1110 0
-1068 -1116 0
-1068 -1122 0
-1068 -1128 0
-1068 -1134 0
-1068 -1140 0
-1068 -1146 0
-1068 -1152 0
-1068 -1158 0
-1068 -1164 0
-1068 -1170 0
-1068 -1176 0
-1068 -1182 0
-1068 -1188 0
-1068 -1194 0
-1068 -1200 0
-1068 -1206 0
-1068 -1212 0
-1068 -1218 0
-1068 -1224 0
-1068 -1230 0
-1068 -1236 0
-1068 -1242 0
-1068 -1248 0
-1068 -1254 0
-1068 -1260 0
-1068 -1266 0
-1074 -1080 0
-1074 -1086 0
-1074 -1092 0
-1074 -1098 0
-1074 -1104 0
-1074 -1110 0
-1074 -1116 0
-1074 -1122 0
-1074 -1128 0
-1074 -1134 0
-1074 -1140 0
-1074 -1146 0
-1074 -1152 0
-1074 -1158 0
-1074 -1164 0
-1074 -1170 0
-1074 -1176 0
-1074 -1182 0
-1074 -1188 0
-1074 -1194 0
-1074 -1200 0
-1074 -1206 0
-1074 -1212 0
-1074 -1218 0
-1074 -1224 0
-1074 -1230 0
-1074 -1236 0
-1074 -1242 0
-1074 -1248 0
-1074 -1254 0
-1074 -1260 0
-1074 -1266 0
-1080 -1086 0
-1080 -1092 0
-1080 -1098 0
-1080 -1104 0
-1080 -1110 0
-1080 -1116 0
-1080 -1122 0
-1080 -1128 0
-1080 -1134 0
-1080 -1140 0
-1080 -1146 0
-1080 -1152 0
-1080 -1158 0
-1080 -1164 0
-1080 -1170 0
-1080 -1176 0
-1080 -1182 0
-1080 -1188 0
-1080 -1194 0
-1080 -1200 0
-1080 -1206 0
-1080 -1212 0
-1080 -1218 0
-1080 -1224 0
-1080 -1230 0
-1080 -1236 0
-1080 -1242 0
-1080 -1248 0
-1080 -1254 0
-1080 -1260 0
-1080 -1266 0
-1086 -1092 0
-1086 -1098 0
-1086 -1104 0
-1086 -1110 0
-1086 -1116 0
-1086 -1122 0
-1086 -1128 0
-1086 -1134 0
-1086 -1140 0
-1086 -1146 0
-1086 -1152 0
-1086 -1158 0
-1086 -1164 0
-1086 -1170 0
-1086 -1176 0
-1086 -1182 0
-1086 -1188 0
-1086 -1194 0
-1086 -1200 0
-1086 -1206 0
-1086 -1212 0
-1086 -1218 0
-1086 -1224 0
-1086 -1230 0
-1086 -1236 0
-1086 -1242 0
-1086 -1248 0
-1086 -1254 0
-1086 -1260 0
-1086 -1266 0
-1092 -1098 0
-1092 -1104 0
-1092 -1110 0
-1092 -1116 0
-1092 -1122 0
-1092 -1128 0
-1092 -1134 0
-1092 -1140 0
-1092 -1146 0
-1092 -1152 0
-1092 -1158 0
-1092 -1164 0
-1092 -1170 0
-1092 -1176 0
-1092 -1182 0
-1092 -1188 0
-1092 -1194 0
-1092 -1200 0
-1092 -1206 0
-1092 -1212 0
-1092 -1218 0
-1092 -1224 0
-1092 -1230 0
-1092 -1236 0
-1092 -1242 0
-1092 -1248 0
-1092 -1254 0
-1092 -1260 0
-1092 -1266 0
-1098 -1104 0
-1098 -1110 0
-1098 -1116 0
-1098 -1122 0
-1098 -1128 0
-1098 -1134 0
-1098 -1140 0
-1098 -1146 0
-1098 -1152 0
-1098 -1158 0
-1098 -1164 0
-1098 -1170 0
-1098 -1176 0
-1098 -1182 0
-1098 -1188 0
-1098 -1194 0
-1098 -1200 0
-1098 -1206 0
-1098 -1212 0
-1098 -1218 0
-1098 -1224 0
-1098 -1230 0
-1098 -1236 0
-1098 -1242 0
-1098 -1248 0
-1098 -1254 0
-1098 -1260 0
-1098 -1266 0
-1104 -1110 0
-1104 -1116 0
-1104 -1122 0
-1104 -1128 0
-1104 -1134 0
-1104 -1140 0
-1104 -1146 0
-1104 -1152 0
-1104 -1158 0
-1104 -1164 0
-1104 -1170 0
-1104 -1176 0
-1104 -1182 0
-1104 -1188 0
-1104 -1194 0
-1104 -1200 0
-1104 -1206 0
-1104 -1212 0
-1104 -1218 0
-1104 -1224 0
-1104 -1230 0
-1104 -1236 0
-1104 -1242 0
-1104 -1248 0
-1104 -1254 0
-1104 -1260 0
-1104 -1266 0
-1110 -1116 0
-1110 -1122 0
-1110 -1128 0
-1110 -1134 0
-1110 -1140 0
-1110 -1146 0
-1110 -1152 0
-1110 -1158 0
-1110 -1164 0
-1110 -1170 0
-1110 -1176 0
-1110 -1182 0
-1110 -1188 0
-1110 -1194 0
-1110 -1200 0
-1110 -1206 0
-1110 -1212 0
-1110 -1218 0
-1110 -1224 0
-1110 -1230 0
-1110 -1236 0
-1110 -1242 0
-1110 -1248 0
-1110 -1254 0
-1110 -1260 0
-1110 -1266 0
-1116 -1122 0
-1116 -1128 0
-1116 -1134 0
-1116 -1140 0
-1116 -1146 0
-1116 -1152 0
-1116 -1158 0
-1116 -1164 0
-1116 -1170 0
-1116 -1176 0
-1116 -1182 0
-1116 -1188 0
-1116 -1194 0
-1116 -1200 0
-1116 -1206 0
-1116 -1212 0
-1116 -1218 0
-1116 -1224 0
-1116 -1230 0
-1116 -1236 0
-1116 -1242 0
-1116 -1248 0
-1116 -1254 0
-1116 -1260 0
-1116 -1266 0
-1122 -1128 0
-1122 -1134 0
-1122 -1140 0
-1122 -1146 0
-1122 -1152 0
-1122 -1158 0
-1122 -1164 0
-1122 -1170 0
-1122 -1176 0
-1122 -1182 0
-1122 -1188 0
-1122 -1194 0
-1122 -1200 0
-1122 -1206 0
-1122 -1212 0
-1122 -1218 0
-1122 -1224 0
-1122 -1230 0
-1122 -1236 0
-1122 -1242 0
-1122 -1248 0
-1122 -1254 0
-1122 -1260 0
-1122 -1266 0
-1128 -1134 0
-1128 -1140 0
-1128 -1146 0
-1128 -1152 0
-1128 -1158 0
-1128 -1164 0
-1128 -1170 0
-1128 -1176 0
-1128 -1182 0
-1128 -1188 0
-1128 -1194 0
-1128 -1200 0
-1128 -1206 0
-1128 -1212 0
-1128 -1218 0
-1128 -1224 0
-1128 -1230 0
-1128 -1236 0
-1128 -1242 0
-1128 -1248 0
-1128 -1254 0
-1128 -1260 0
-1128 -1266 0
-1134 -1140 0
-1134 -1146 0
-1134 -1152 0
-1134 -1158 0
-1134 -1164 0
-1134 -1170 0
-1134 -1176 0
-1134 -1182 0
-1134 -1188 0
-1134 -1194 0
-1134 -1200 0
-1134 -1206 0
-1134 -1212 0
-1134 -1218 0
-1134 -1224 0
-1134 -1230 0
-1134 -1236 0
-1134 -1242 0
-1134 -1248 0
-1134 -1254 0
-1134 -1260 0
-1134 -1266 0
-1140 -1146 0
-1140 -1152 0
-1140 -1158 0
-1140 -1164 0
-1140 -1170 0
-1140 -1176 0
-1140 -1182 0
-1140 -1188 0
-1140 -1194 0
-1140 -1200 0
-1140 -1206 0
-1140 -1212 0
-1140 -1218 0
-1140 -1224 0
-1140 -1230 0
-1140 -1236 0
-1140 -1242 0
-1140 -1248 0
-1140 -1254 0
-1140 -1260 0
-1140 -1266 0
-1146 -1152 0
-1146 -1158 0
-1146 -1164 0
-1146 -1170 0
-1146 -1176 0
-1146 -1182 0
-1146 -1188 0
-1146 -1194 0
-1146 -1200 0
-1146 -1206 0
-1146 -1212 0
-1146 -1218 0
-1146 -1224 0
-1146 -1230 0
-1146 -1236 0
-1146 -1242 0
-1146 -1248 0
-1146 -1254 0
-1146 -1260 0
-1146 -1266 0
-1152 -1158 0
-1152 -1164 0
-1152 -1170 0
-1152 -1176 0
-1152 -1182 0
-1152 -1188 0
-1152 -1194 0
-1152 -1200 0
-1152 -1206 0
-1152 -1212 0
-1152 -1218 0
-1152 -1224 0
-1152 -1230 0
-1152 -1236 0
-1152 -1242 0
-1152 -1248 0
-1152 -1254 0
-1152 -1260 0
-1152 -1266 0
-1158 -1164 0
-1158 -1170 0
-1158 -1176 0
-1158 -1182 0
-1158 -1188 0
-1158 -1194 0
-1158 -1200 0
-1158 -1206 0
-1158 -1212 0
-1158 -1218 0
-1158 -1224 0
-1158 -1230 0
-1158 -1236 0
-1158 -1242 0
-1158 -1248 0
-1158 -1254 0
-1158 -1260 0
-1158 -1266 0
-1164 -1170 0
-1164 -1176 0
-1164 -1182 0
-1164 -1188 0
-1164 -1194 0
-1164 -1200 0
-1164 -1206 0
-1164 -1212 0
-1164 -1218 0
-1164 -1224 0
-1164 -1230 0
-1164 -1236 0
-1164 -1242 0
-1164 -1248 0
-1164 -1254 0
-1164 -1260 0
-1164 -1266 0
-1170 -1176 0
-1170 -1182 0
-1170 -1188 0
-1170 -1194 0
-1170 -1200 0
-1170 -1206 0
-1170 -1212 0
-1170 -1218 0
-1170 -1224 0
-1170 -1230 0
-1170 -1236 0
-1170 -1242 0
-1170 -1248 0
-1170 -1254 0
-1170 -1260 0
-1170 -1266 0
-1176 -1182 0
-1176 -1188 0
-1176 -1194 0
-1176 -1200 0
-1176 -1206 0
-1176 -1212 0
-1176 -1218 0
-1176 -1224 0
-1176 -1230 0
-1176 -1236 0
-1176 -1242 0
-1176 -1248 0
-1176 -1254 0
-1176 -1260 0
-1176 -1266 0
-1182 -1188 0
-1182 -1194 0
-1182 -1200 0
-1182 -1206 0
-1182 -1212 0
-1182 -1218 0
-1182 -1224 0
-1182 -1230 0
-1182 -1236 0
-1182 -1242 0
-1182 -1248 0
-1182 -1254 0
-1182 -1260 0
-1182 -1266 0
-1188 -1194 0
-1188 -1200 0
-1188 -1206 0
-1188 -1212 0
-1188 -1218 0
-1188 -1224 0
-1188 -1230 0
-1188 -1236 0
-1188 -1242 0
-1188 -1248 0
-1188 -1254 0
-1188 -1260 0
-1188 -1266 0
-1194 -1200 0
-1194 -1206 0
-1194 -1212 0
-1194 -1218 0
-1194 -1224 0
-1194 -1230 0
-1194 -1236 0
-1194 -1242 0
-1194 -1248 0
-1194 -1254 0
-1194 -1260 0
-1194 -1266 0
-1200 -1206 0
-1200 -1212 0
-1200 -1218 0
-1200 -1224 0
-1200 -1230 0
-1200 -1236 0
-1200 -1242 0
-1200 -1248 0
-1200 -1254 0
-1200 -1260 0
-1200 -1266 0
-1206 -1212 0
-1206 -1218 0
-1206 -1224 0
-1206 -1230 0
-1206 -1236 0
-1206 -1242 0
-1206 -1248 0
-1206 -1254 0
-1206 -1260 0
-1206 -1266 0
-1212 -1218 0
-1212 -1224 0
-1212 -1230 0
-1212 -1236 0
-1212 -1242 0
-1212 -1248 0
-1212 -1254 0
-1212 -1260 0
-1212 -1266 0
-1218 -1224 0
-1218 -1230 0
-1218 -1236 0
-1218 -1242 0
-1218 -1248 0
-1218 -1254 0
-1218 -1260 0
-1218 -1266 0
-1224 -1230 0
-1224 -1236 0
-1224 -1242 0
-1224 -1248 0
-1224 -1254 0
-1224 -1260 0
-1224 -1266 0
-1230 -1236 0
-1230 -1242 0
-1230 -1248 0
-1230 -1254 0
-1230 -1260 0
-1230 -1266 0
-1236 -1242 0
-1236 -1248 0
-1236 -1254 0
-1236 -1260 0
-1236 -1266 0
-1242 -1248 0
-1242 -1254 0
-1242 -1260 0
-1242 -1266 0
-1248 -1254 0
-1248 -1260 0
-1248 -1266 0
-1254 -1260 0
-1254 -1266 0
-1260 -1266 0
-768 236 0
-768 -187 0
-768 -173 6 0
-768 -173 160 0
-768 -173 -54 0
-768 -173 -61 0
-768 -173 -68 0
-768 -173 -75 0
-768 -173 -82 0
-768 -173 -47 -180 0
-768 -173 -89 -201 0
-768 -173 -124 -222 0
-768 -173 390 516 642 0
-768 -180 6 0
-768 -180 167 0
-768 -180 -54 0
-768 -180 -61 0
-768 -180 -68 0
-768 -180 -75 0
-768 -180 -82 0
-768 -180 -47 -187 0
-768 -180 -89 -208 0
-768 -180 -124 -229 0
-768 -180 397 523 649 0
-768 -5 -173 -159 0
-768 -5 -180 -166 0
-774 236 0
-774 -187 0
-774 -173 13 0
-774 -173 160 0
-774 -173 -47 0
-774 -173 -61 0
-774 -173 -68 0
-774 -173 -75 0
-774 -173 -82 0
-774 -173 -54 -180 0
-774 -173 -89 -201 0
-774 -173 -96 -201 0
-774 -173 -124 -222 0
-774 -173 -131 -222 0
-774 -173 411 537 663 0
-774 -180 13 0
-774 -180 167 0
-774 -180 -47 0
-774 -180 -61 0
-774 -180 -68 0
-774 -180 -75 0
-774 -180 -82 0
-774 -180 -54 -187 0
-774 -180 -89 -208 0
-774 -180 -96 -208 0
-774 -180 -124 -229 0
-774 -180 -131 -229 0
-774 -180 418 544 670 0
-774 -12 -173 -159 0
-774 -12 -180 -166 0
-780 236 0
-780 -187 0
-780 -173 20 0
-780 -173 160 0
-780 -173 -47 0
-780 -173 -54 0
-780 -173 -68 0
-780 -173 -75 0
-780 -173 -82 0
-780 -173 -61 -180 0
-780 -173 -96 -201 0
-780 -173 -103 -201 0
-780 -173 -124 -222 0
-780 -173 -131 -222 0
-780 -173 -138 -222 0
-780 -173 432 558 684 0
-780 -180 20 0
-780 -180 167 0
-780 -180 -47 0
-780 -180 -54 0
-780 -180 -68 0
-780 -180 -75 0
-780 -180 -82 0
-780 -180 -61 -187 0
-780 -180 -96 -208 0
-780 -180 -103 -208 0
-780 -180 -124 -229 0
-780 -180 -131 -229 0
-780 -180 -138 -229 0
-780 -180 439 565 691 0
-780 -19 -173 -159 0
-780 -19 -180 -166 0
-786 236 0
-786 -187 0
-786 -173 27 0
-786 -173 160 0
-786 -173 -47 0
-786 -173 -54 0
-786 -173 -61 0
-786 -173 -75 0
-786 -173 -82 0
-786 -173 -68 -180 0
-786 -173 -103 -201 0
-786 -173 -110 -201 0
-786 -173 -131 -222 0
-786 -173 -138 -222 0
-786 -173 -145 -222 0
-786 -173 453 579 705 0
-786 -180 27 0
-786 -180 167 0
-786 -180 -47 0
-786 -180 -54 0
-786 -180 -61 0
-786 -180 -75 0
-786 -180 -82 0
-786 -180 -68 -187 0
-786 -180 -103 -208 0
-786 -180 -110 -208 0
-786 -180 -131 -229 0
-786 -180 -138 -229 0
-786 -180 -145 -229 0
-786 -180 460 586 712 0
-786 -26 -173 -159 0
-786 -26 -180 -166 0
-792 236 0
-792 -187 0
-792 -173 34 0
-792 -173 160 0
-792 -173 -47 0
-792 -173 -54 0
-792 -173 -61 0
-792 -173 -68 0
-792 -173 -82 0
-792 -173 -75 -180 0
-792 -173 -110 -201 0
-792 -173 -117 -201 0
-792 -173 -138 -222 0
-792 -173 -145 -222 0
-792 -173 474 600 726 0
-792 -180 34 0
-792 -180 167 0
-792 -180 -47 0
-792 -180 -54 0
-792 -180 -61 0
-792 -180 -68 0
-792 -180 -82 0
-792 -180 -75 -187 0
-792 -180 -110 -208 0
-792 -180 -117 -208 0
-792 -180 -138 -229 0
-792 -180 -145 -229 0
-792 -180 481 607 733 0
-792 -33 -173 -159 0
-792 -33 -180 -166 0
-798 236 0
-798 -187 0
-798 -173 41 0
-798 -173 160 0
-798 -173 -47 0
-798 -173 -54 0
-798 -173 -61 0
-798 -173 -68 0
-798 -173 -75 0
-798 -173 -82 -180 0
-798 -173 -117 -201 0
-798 -173 -145 -222 0
-798 -173 495 621 747 0
-798 -180 41 0
-798 -180 167 0
-798 -180 -47 0
-798 -180 -54 0
-798 -180 -61 0
-798 -180 -68 0
-798 -180 -75 0
-798 -180 -82 -187 0
-798 -180 -117 -208 0
-798 -180 -145 -229 0
-798 -180 502 628 754 0
-798 -40 -173 -159 0
-798 -40 -180 -166 0
-804 236 0
-804 -208 0
-804 -194 6 0
-804 -194 160 0
-804 -194 -96 0
-804 -194 -103 0
-804 -194 -110 0
-804 -194 -117 0
-804 -194 -47 -180 0
-804 -194 -89 -201 0
-804 -194 -124 -222 0
-804 -194 390 516 642 0
-804 -201 6 0
-804 -201 167 0
-804 -201 -96 0
-804 -201 -103 0
-804 -201 -110 0
-804 -201 -117 0
-804 -201 -47 -187 0
-804 -201 -89 -208 0
-804 -201 -124 -229 0
-804 -201 397 523 649 0
-804 -5 -194 -159 0
-804 -5 -201 -166 0
-810 236 0
-810 -208 0
-810 -194 13 0
-810 -194 160 0
-810 -194 -103 0
-810 -194 -110 0
-810 -194 -117 0
-810 -194 -54 -180 0
-810 -194 -89 -201 0
-810 -194 -96 -201 0
-810 -194 -124 -222 0
-810 -194 -131 -222 0
-810 -194 411 537 663 0
-810 -201 13 0
-810 -201 167 0
-810 -201 -103 0
-810 -201 -110 0
-810 -201 -117 0
-810 -201 -54 -187 0
-810 -201 -89 -208 0
-810 -201 -96 -208 0
-810 -201 -124 -229 0
-810 -201 -131 -229 0
-810 -201 418 544 670 0
-810 -12 -194 -159 0
-810 -12 -201 -166 0
-816 236 0
-816 -208 0
-816 -194 20 0
-816 -194 160 0
-816 -194 -89 0
-816 -194 -110 0
-816 -194 -117 0
-816 -194 -61 -180 0
-816 -194 -96 -201 0
-816 -194 -103 -201 0
-816 -194 -124 -222 0
-816 -194 -131 -222 0
-816 -194 -138 -222 0
-816 -194 432 558 684 0
-816 -201 20 0
-816 -201 167 0
-816 -201 -89 0
-816 -201 -110 0
-816 -201 -117 0
-816 -201 -61 -187 0
-816 -201 -96 -208 0
-816 -201 -103 -208 0
-816 -201 -124 -229 0
-816 -201 -131 -229 0
-816 -201 -138 -229 0
-816 -201 439 565 691 0
-816 -19 -194 -159 0
-816 -19 -201 -166 0
-822 236 0
-822 -208 0
-822 -194 27 0
-822 -194 160 0
-822 -194 -89 0
-822 -194 -96 0
-822 -194 -117 0
-822 -194 -68 -180 0
-822 -194 -103 -201 0
-822 -194 -110 -201 0
-822 -194 -131 -222 0
-822 -194 -138 -222 0
-822 -194 -145 -222 0
-822 -194 453 579 705 0
-822 -201 27 0
-822 -201 167 0
-822 -201 -89 0
-822 -201 -96 0
-822 -201 -117 0
-822 -201 -68 -187 0
-822 -201 -103 -208 0
-822 -201 -110 -208 0
-822 -201 -131 -229 0
-822 -201 -138 -229 0
-822 -201 -145 -229 0
-822 -201 460 586 712 0
-822 -26 -194 -159 0
-822 -26 -201 -166 0
-828 236 0
-828 -208 0
-828 -194 34 0
-828 -194 160 0
-828 -194 -89 0
-828 -194 -96 0
-828 -194 -103 0
-828 -194 -75 -180 0
-828 -194 -110 -201 0
-828 -194 -117 -201 0
-828 -194 -138 -222 0
-828 -194 -145 -222 0
-828 -194 474 600 726 0
-828 -201 34 0
-828 -201 167 0
-828 -201 -89 0
-828 -201 -96 0
-828 -201 -103 0
-828 -201 -75 -187 0
-828 -201 -110 -208 0
-828 -201 -117 -208 0
-828 -201 -138 -229 0
-828 -201 -145 -229 0
-828 -201 481 607 733 0
-828 -33 -194 -159 0
-828 -33 -201 -166 0
-834 236 0
-834 -208 0
-834 -194 41 0
-834 -194 160 0
-834 -194 -89 0
-834 -194 -96 0
-834 -194 -103 0
-834 -194 -110 0
-834 -194 -82 -180 0
-834 -194 -117 -201 0
-834 -194 -145 -222 0
-834 -194 495 621 747 0
-834 -201 41 0
-834 -201 167 0
-834 -201 -89 0
-834 -201 -96 0
-834 -201 -103 0
-834 -201 -110 0
-834 -201 -82 -187 0
-834 -201 -117 -208 0
-834 -201 -145 -229 0
-834 -201 502 628 754 0
-834 -40 -194 -159 0
-834 -40 -201 -166 0
-840 236 0
-840 -229 0
-840 -215 6 0
-840 -215 160 0
-840 -215 -131 0
-840 -215 -138 0
-840 -215 -145 0
-840 -215 -47 -180 0
-840 -215 -89 -201 0
-840 -215 -124 -222 0
-840 -215 390 516 642 0
-840 -222 6 0
-840 -222 167 0
-840 -222 -131 0
-840 -222 -138 0
-840 -222 -145 0
-840 -222 -47 -187 0
-840 -222 -89 -208 0
-840 -222 -124 -229 0
-840 -222 397 523 649 0
-840 -5 -215 -159 0
-840 -5 -222 -166 0
-846 236 0
-846 -229 0
-846 -215 13 0
-846 -215 160 0
-846 -215 -138 0
-846 -215 -145 0
-846 -215 -54 -180 0
-846 -215 -89 -201 0
-846 -215 -96 -201 0
-846 -215 -124 -222 0
-846 -215 -131 -222 0
-846 -215 411 537 663 0
-846 -222 13 0
-846 -222 167 0
-846 -222 -138 0
-846 -222 -145 0
-846 -222 -54 -187 0
-846 -222 -89 -208 0
-846 -222 -96 -208 0
-846 -222 -124 -229 0
-846 -222 -131 -229 0
-846 -222 418 544 670 0
-846 -12 -215 -159 0
-846 -12 -222 -166 0
-852 236 0
-852 -229 0
-852 -215 20 0
-852 -215 160 0
-852 -215 -145 0
-852 -215 -61 -180 0
-852 -215 -96 -201 0
-852 -215 -103 -201 0
-852 -215 -124 -222 0
-852 -215 -131 -222 0
-852 -215 -138 -222 0
-852 -215 432 558 684 0
-852 -222 20 0
-852 -222 167 0
-852 -222 -145 0
-852 -222 -61 -187 0
-852 -222 -96 -208 0
-852 -222 -103 -208 0
-852 -222 -124 -229 0
-852 -222 -131 -229 0
-852 -222 -138 -229 0
-852 -222 439 565 691 0
-852 -19 -215 -159 0
-852 -19 -222 -166 0
-858 236 0
-858 -229 0
-858 -215 27 0
-858 -215 160 0
-858 -215 -124 0
-858 -215 -68 -180 0
-858 -215 -103 -201 0
-858 -215 -110 -201 0
-858 -215 -131 -222 0
-858 -215 -138 -222 0
-858 -215 -145 -222 0
-858 -215 453 579 705 0
-858 -222 27 0
-858 -222 167 0
-858 -222 -124 0
-858 -222 -68 -187 0
-858 -222 -103 -208 0
-858 -222 -110 -208 0
-858 -222 -131 -229 0
-858 -222 -138 -229 0
-858 -222 -145 -229 0
-858 -222 460 586 712 0
-858 -26 -215 -159 0
-858 -26 -222 -166 0
-864 236 0
-864 -229 0
-864 -215 34 0
-864 -215 160 0
-864 -215 -124 0
-864 -215 -131 0
-864 -215 -75 -180 0
-864 -215 -110 -201 0
-864 -215 -117 -201 0
-864 -215 -138 -222 0
-864 -215 -145 -222 0
-864 -215 474 600 726 0
-864 -222 34 0
-864 -222 167 0
-864 -222 -124 0
-864 -222 -131 0
-864 -222 -75 -187 0
-864 -222 -110 -208 0
-864 -222 -117 -208 0
-864 -222 -138 -229 0
-864 -222 -145 -229 0
-864 -222 481 607 733 0
-864 -33 -215 -159 0
-864 -33 -222 -166 0
-870 236 0
-870 -229 0
-870 -215 41 0
-870 -215 160 0
-870 -215 -124 0
-870 -215 -131 0
-870 -215 -138 0
-870 -215 -82 -180 0
-870 -215 -117 -201 0
-870 -215 -145 -222 0
-870 -215 495 621 747 0
-870 -222 41 0
-870 -222 167 0
-870 -222 -124 0
-870 -222 -131 0
-870 -222 -138 0
-870 -222 -82 -187 0
-870 -222 -117 -208 0
-870 -222 -145 -229 0
-870 -222 502 628 754 0
-870 -40 -215 -159 0
-870 -40 -222 -166 0
-876 236 0
-876 6 0
-876 153 0
-876 -5 -152 0
-876 -47 -173 0
-876 -89 -194 0
-876 -124 -215 0
-882 236 0
-882 13 0
-882 153 0
-882 -12 -152 0
-882 -54 -173 0
-882 -89 -194 0
-882 -96 -194 0
-882 -124 -215 0
-882 -131 -215 0
-888 236 0
-888 20 0
-888 153 0
-888 -19 -152 0
-888 -61 -173 0
-888 -96 -194 0
-888 -103 -194 0
-888 -124 -215 0
-888 -131 -215 0
-888 -138 -215 0
-894 236 0
-894 27 0
-894 153 0
-894 -26 -152 0
-894 -68 -173 0
-894 -103 -194 0
-894 -110 -194 0
-894 -131 -215 0
-894 -138 -215 0
-894 -145 -215 0
-900 236 0
-900 34 0
-900 153 0
-900 -33 -152 0
-900 -75 -173 0
-900 -110 -194 0
-900 -117 -194 0
-900 -138 -215 0
-900 -145 -215 0
-906 236 0
-906 41 0
-906 153 0
-906 -40 -152 0
-906 -82 -173 0
-906 -117 -194 0
-906 -145 -215 0
-912 243 0
-912 -166 0
-912 -152 48 0
-912 -152 181 0
-912 -152 -12 0
-912 -152 -19 0
-912 -152 -26 0
-912 -152 -33 0
-912 -152 -40 0
-912 -152 -5 -159 0
-912 -152 -89 -201 0
-912 -152 -124 -222 0
-912 -152 264 516 642 0
-912 -159 48 0
-912 -159 188 0
-912 -159 -12 0
-912 -159 -19 0
-912 -159 -26 0
-912 -159 -33 0
-912 -159 -40 0
-912 -159 -5 -166 0
-912 -159 -89 -208 0
-912 -159 -124 -229 0
-912 -159 271 523 649 0
-912 -47 -152 -180 0
-912 -47 -159 -187 0
-918 243 0
-918 -166 0
-918 -152 55 0
-918 -152 181 0
-918 -152 -5 0
-918 -152 -19 0
-918 -152 -26 0
-918 -152 -33 0
-918 -152 -40 0
-918 -152 -12 -159 0
-918 -152 -89 -201 0
-918 -152 -96 -201 0
-918 -152 -124 -222 0
-918 -152 -131 -222 0
-918 -152 285 537 663 0
-918 -159 55 0
-918 -159 188 0
-918 -159 -5 0
-918 -159 -19 0
-918 -159 -26 0
-918 -159 -33 0
-918 -159 -40 0
-918 -159 -12 -166 0
-918 -159 -89 -208 0
-918 -159 -96 -208 0
-918 -159 -124 -229 0
-918 -159 -131 -229 0
-918 -159 292 544 670 0
-918 -54 -152 -180 0
-918 -54 -159 -187 0
-924 243 0
-924 -166 0
-924 -152 62 0
-924 -152 181 0
-924 -152 -5 0
-924 -152 -12 0
-924 -152 -26 0
-924 -152 -33 0
-924 -152 -40 0
-924 -152 -19 -159 0
-924 -152 -96 -201 0
-924 -152 -103 -201 0
-924 -152 -124 -222 0
-924 -152 -131 -222 0
-924 -152 -138 -222 0
-924 -152 306 558 684 0
-924 -159 62 0
-924 -159 188 0
-924 -159 -5 0
-924 -159 -12 0
-924 -159 -26 0
-924 -159 -33 0
-924 -159 -40 0
-924 -159 -19 -166 0
-924 -159 -96 -208 0
-924 -159 -103 -208 0
-924 -159 -124 -229 0
-924 -159 -131 -229 0
-924 -159 -138 -229 0
-924 -159 313 565 691 0
-924 -61 -152 -180 0
-924 -61 -159 -187 0
-930 243 0
-930 -166 0
-930 -152 69 0
-930 -152 181 0
-930 -152 -5 0
-930 -152 -12 0
-930 -152 -19 0
-930 -152 -33 0
-930 -152 -40 0
-930 -152 -26 -159 0
-930 -152 -103 -201 0
-930 -152 -110 -201 0
-930 -152 -131 -222 0
-930 -152 -138 -222 0
-930 -152 -145 -222 0
-930 -152 327 579 705 0
-930 -159 69 0
-930 -159 188 0
-930 -159 -5 0
-930 -159 -12 0
-930 -159 -19 0
-930 -159 -33 0
-930 -159 -40 0
-930 -159 -26 -166 0
-930 -159 -103 -208 0
-930 -159 -110 -208 0
-930 -159 -131 -229 0
-930 -159 -138 -229 0
-930 -159 -145 -229 0
-930 -159 334 586 712 0
-930 -68 -152 -180 0
-930 -68 -159 -187 0
-936 243 0
-936 -166 0
-936 -152 76 0
-936 -152 181 0
-936 -152 -5 0
-936 -152 -12 0
-936 -152 -19 0
-936 -152 -26 0
-936 -152 -40 0
-936 -152 -33 -159 0
-936 -152 -110 -201 0
-936 -152 -117 -201 0
-936 -152 -138 -222 0
-936 -152 -145 -222 0
-936 -152 348 600 726 0
-936 -159 76 0
-936 -159 188 0
-936 -159 -5 0
-936 -159 -12 0
-936 -159 -19 0
-936 -159 -26 0
-936 -159 -40 0
-936 -159 -33 -166 0
-936 -159 -110 -208 0
-936 -159 -117 -208 0
-936 -159 -138 -229 0
-936 -159 -145 -229 0
-936 -159 355 607 733 0
-936 -75 -152 -180 0
-936 -75 -159 -187 0
-942 243 0
-942 -166 0
-942 -152 83 0
-942 -152 181 0
-942 -152 -5 0
-942 -152 -12 0
-942 -152 -19 0
-942 -152 -26 0
-942 -152 -33 0
-942 -152 -40 -159 0
-942 -152 -117 -201 0
-942 -152 -145 -222 0
-942 -152 369 621 747 0
-942 -159 83 0
-942 -159 188 0
-942 -159 -5 0
-942 -159 -12 0
-942 -159 -19 0
-942 -159 -26 0
-942 -159 -33 0
-942 -159 -40 -166 0
-942 -159 -117 -208 0
-942 -159 -145 -229 0
-942 -159 376 628 754 0
-942 -82 -152 -180 0
-942 -82 -159 -187 0
-948 243 0
-948 -208 0
-948 -194 48 0
-948 -194 181 0
-948 -194 -96 0
-948 -194 -103 0
-948 -194 -110 0
-948 -194 -117 0
-948 -194 -5 -159 0
-948 -194 -89 -201 0
-948 -194 -124 -222 0
-948 -194 264 516 642 0
-948 -201 48 0
-948 -201 188 0
-948 -201 -96 0
-948 -201 -103 0
-948 -201 -110 0
-948 -201 -117 0
-948 -201 -5 -166 0
-948 -201 -89 -208 0
-948 -201 -124 -229 0
-948 -201 271 523 649 0
-948 -47 -194 -180 0
-948 -47 -201 -187 0
-954 243 0
-954 -208 0
-954 -194 55 0
-954 -194 181 0
-954 -194 -103 0
-954 -194 -110 0
-954 -194 -117 0
-954 -194 -12 -159 0
-954 -194 -89 -201 0
-954 -194 -96 -201 0
-954 -194 -124 -222 0
-954 -194 -131 -222 0
-954 -194 285 537 663 0
-954 -201 55 0
-954 -201 188 0
-954 -201 -103 0
-954 -201 -110 0
-954 -201 -117 0
-954 -201 -12 -166 0
-954 -201 -89 -208 0
-954 -201 -96 -208 0
-954 -201 -124 -229 0
-954 -201 -131 -229 0
-954 -201 292 544 670 0
-954 -54 -194 -180 0
-954 -54 -201 -187 0
-960 243 0
-960 -208 0
-960 -194 62 0
-960 -194 181 0
-960 -194 -89 0
-960 -194 -110 0
-960 -194 -117 0
-960 -194 -19 -159 0
-960 -194 -96 -201 0
-960 -194 -103 -201 0
-960 -194 -124 -222 0
-960 -194 -131 -222 0
-960 -194 -138 -222 0
-960 -194 306 558 684 0
-960 -201 62 0
-960 -201 188 0
-960 -201 -89 0
-960 -201 -110 0
-960 -201 -117 0
-960 -201 -19 -166 0
-960 -201 -96 -208 0
-960 -201 -103 -208 0
-960 -201 -124 -229 0
-960 -201 -131 -229 0
-960 -201 -138 -229 0
-960 -201 313 565 691 0
-960 -61 -194 -180 0
-960 -61 -201 -187 0
-966 243 0
-966 -208 0
-966 -194 69 0
-966 -194 181 0
-966 -194 -89 0
-966 -194 -96 0
-966 -194 -117 0
-966 -194 -26 -159 0
-966 -194 -103 -201 0
-966 -194 -110 -201 0
-966 -194 -131 -222 0
-966 -194 -138 -222 0
-966 -194 -145 -222 0
-966 -194 327 579 705 0
-966 -201 69 0
-966 -201 188 0
-966 -201 -89 0
-966 -201 -96 0
-966 -201 -117 0
-966 -201 -26 -166 0
-966 -201 -103 -208 0
-966 -201 -110 -208 0
-966 -201 -131 -229 0
-966 -201 -138 -229 0
-966 -201 -145 -229 0
-966 -201 334 586 712 0
-966 -68 -194 -180 0
-966 -68 -201 -187 0
-972 243 0
-972 -208 0
-972 -194 76 0
-972 -194 181 0
-972 -194 -89 0
-972 -194 -96 0
-972 -194 -103 0
-972 -194 -33 -159 0
-972 -194 -110 -201 0
-972 -194 -117 -201 0
-972 -194 -138 -222 0
-972 -194 -145 -222 0
-972 -194 348 600 726 0
-972 -201 76 0
-972 -201 188 0
-972 -201 -89 0
-972 -201 -96 0
-972 -201 -103 0
-972 -201 -33 -166 0
-972 -201 -110 -208 0
-972 -201 -117 -208 0
-972 -201 -138 -229 0
-972 -201 -145 -229 0
-972 -201 355 607 733 0
-972 -75 -194 -180 0
-972 -75 -201 -187 0
-978 243 0
-978 -208 0
-978 -194 83 0
-978 -194 181 0
-978 -194 -89 0
-978 -194 -96 0
-978 -194 -103 0
-978 -194 -110 0
-978 -194 -40 -159 0
-978 -194 -117 -201 0
-978 -194 -145 -222 0
-978 -194 369 621 747 0
-978 -201 83 0
-978 -201 188 0
-978 -201 -89 0
-978 -201 -96 0
-978 -201 -103 0
-978 -201 -110 0
-978 -201 -40 -166 0
-978 -201 -117 -208 0
-978 -201 -145 -229 0
-978 -201 376 628 754 0
-978 -82 -194 -180 0
-978 -82 -201 -187 0
-984 243 0
-984 -229 0
-984 -215 48 0
-984 -215 181 0
-984 -215 -131 0
-984 -215 -138 0
-984 -215 -145 0
-984 -215 -5 -159 0
-984 -215 -89 -201 0
-984 -215 -124 -222 0
-984 -215 264 516 642 0
-984 -222 48 0
-984 -222 188 0
-984 -222 -131 0
-984 -222 -138 0
-984 -222 -145 0
-984 -222 -5 -166 0
-984 -222 -89 -208 0
-984 -222 -124 -229 0
-984 -222 271 523 649 0
-984 -47 -215 -180 0
-984 -47 -222 -187 0
-990 243 0
-990 -229 0
-990 -215 55 0
-990 -215 181 0
-990 -215 -138 0
-990 -215 -145 0
-990 -215 -12 -159 0
-990 -215 -89 -201 0
-990 -215 -96 -201 0
-990 -215 -124 -222 0
-990 -215 -131 -222 0
-990 -215 285 537 663 0
-990 -222 55 0
-990 -222 188 0
-990 -222 -138 0
-990 -222 -145 0
-990 -222 -12 -166 0
-990 -222 -89 -208 0
-990 -222 -96 -208 0
-990 -222 -124 -229 0
-990 -222 -131 -229 0
-990 -222 292 544 670 0
-990 -54 -215 -180 0
-990 -54 -222 -187 0
-996 243 0
-996 -229 0
-996 -215 62 0
-996 -215 181 0
-996 -215 -145 0
-996 -215 -19 -159 0
-996 -215 -96 -201 0
-996 -215 -103 -201 0
-996 -215 -124 -222 0
-996 -215 -131 -222 0
-996 -215 -138 -222 0
-996 -215 306 558 684 0
-996 -222 62 0
-996 -222 188 0
-996 -222 -145 0
-996 -222 -19 -166 0
-996 -222 -96 -208 0
-996 -222 -103 -208 0
-996 -222 -124 -229 0
-996 -222 -131 -229 0
-996 -222 -138 -229 0
-996 -222 313 565 691 0
-996 -61 -215 -180 0
-996 -61 -222 -187 0
-1002 243 0
-1002 -229 0
-1002 -215 69 0
-1002 -215 181 0
-1002 -215 -124 0
-1002 -215 -26 -159 0
-1002 -215 -103 -201 0
-1002 -215 -110 -201 0
-1002 -215 -131 -222 0
-1002 -215 -138 -222 0
-1002 -215 -145 -222 0
-1002 -215 327 579 705 0
-1002 -222 69 0
-1002 -222 188 0
-1002 -222 -124 0
-1002 -222 -26 -166 0
-1002 -222 -103 -208 0
-1002 -222 -110 -208 0
-1002 -222 -131 -229 0
-1002 -222 -138 -229 0
-1002 -222 -145 -229 0
-1002 -222 334 586 712 0
-1002 -68 -215 -180 0
-1002 -68 -222 -187 0
-1008 243 0
-1008 -229 0
-1008 -215 76 0
-1008 -215 181 0
-1008 -215 -124 0
-1008 -215 -131 0
-1008 -215 -33 -159 0
-1008 -215 -110 -201 0
-1008 -215 -117 -201 0
-1008 -215 -138 -222 0
-1008 -215 -145 -222 0
-1008 -215 348 600 726 0
-1008 -222 76 0
-1008 -222 188 0
-1008 -222 -124 0
-1008 -222 -131 0
-1008 -222 -33 -166 0
-1008 -222 -110 -208 0
-1008 -222 -117 -208 0
-1008 -222 -138 -229 0
-1008 -222 -145 -229 0
-1008 -222 355 607 733 0
-1008 -75 -215 -180 0
-1008 -75 -222 -187 0
-1014 243 0
-1014 -229 0
-1014 -215 83 0
-1014 -215 181 0
-1014 -215 -124 0
-1014 -215 -131 0
-1014 -215 -138 0
-1014 -215 -40 -159 0
-1014 -215 -117 -201 0
-1014 -215 -145 -222 0
-1014 -215 369 621 747 0
-1014 -222 83 0
-1014 -222 188 0
-1014 -222 -124 0
-1014 -222 -131 0
-1014 -222 -138 0
-1014 -222 -40 -166 0
-1014 -222 -117 -208 0
-1014 -222 -145 -229 0
-1014 -222 376 628 754 0
-1014 -82 -215 -180 0
-1014 -82 -222 -187 0
-1020 243 0
-1020 48 0
-1020 174 0
-1020 -47 -173 0
-1020 -5 -152 0
-1020 -89 -194 0
-1020 -124 -215 0
-1026 243 0
-1026 55 0
-1026 174 0
-1026 -54 -173 0
-1026 -12 -152 0
-1026 -89 -194 0
-1026 -96 -194 0
-1026 -124 -215 0
-1026 -131 -215 0
-1032 243 0
-1032 62 0
-1032 174 0
-1032 -61 -173 0
-1032 -19 -152 0
-1032 -96 -194 0
-1032 -103 -194 0
-1032 -124 -215 0
-1032 -131 -215 0
-1032 -138 -215 0
-1038 243 0
-1038 69 0
-1038 174 0
-1038 -68 -173 0
-1038 -26 -152 0
-1038 -103 -194 0
-1038 -110 -194 0
-1038 -131 -215 0
-1038 -138 -215 0
-1038 -145 -215 0
-1044 243 0
-1044 76 0
-1044 174 0
-1044 -75 -173 0
-1044 -33 -152 0
-1044 -110 -194 0
-1044 -117 -194 0
-1044 -138 -215 0
-1044 -145 -215 0
-1050 243 0
-1050 83 0
-1050 174 0
-1050 -82 -173 0
-1050 -40 -152 0
-1050 -117 -194 0
-1050 -145 -215 0
-1056 250 0
-1056 -166 0
-1056 -152 90 0
-1056 -152 202 0
-1056 -152 -19 0
-1056 -152 -26 0
-1056 -152 -33 0
-1056 -152 -40 0
-1056 -152 -5 -159 0
-1056 -152 -12 -159 0
-1056 -152 -47 -180 0
-1056 -152 -54 -180 0
-1056 -152 -124 -222 0
-1056 -152 -131 -222 0
-1056 -152 264 390 642 285 411 663 0
-1056 -159 90 0
-1056 -159 209 0
-1056 -159 -19 0
-1056 -159 -26 0
-1056 -159 -33 0
-1056 -159 -40 0
-1056 -159 -5 -166 0
-1056 -159 -12 -166 0
-1056 -159 -47 -187 0
-1056 -159 -54 -187 0
-1056 -159 -124 -229 0
-1056 -159 -131 -229 0
-1056 -159 271 397 649 292 418 670 0
-1056 -89 -152 -201 0
-1056 -89 -159 -208 0
-1062 250 0
-1062 -166 0
-1062 -152 97 0
-1062 -152 202 0
-1062 -152 -5 0
-1062 -152 -26 0
-1062 -152 -33 0
-1062 -152 -40 0
-1062 -152 -12 -159 0
-1062 -152 -19 -159 0
-1062 -152 -54 -180 0
-1062 -152 -61 -180 0
-1062 -152 -124 -222 0
-1062 -152 -131 -222 0
-1062 -152 -138 -222 0
-1062 -152 285 411 663 306 432 684 0
-1062 -159 97 0
-1062 -159 209 0
-1062 -159 -5 0
-1062 -159 -26 0
-1062 -159 -33 0
-1062 -159 -40 0
-1062 -159 -12 -166 0
-1062 -159 -19 -166 0
-1062 -159 -54 -187 0
-1062 -159 -61 -187 0
-1062 -159 -124 -229 0
-1062 -159 -131 -229 0
-1062 -159 -138 -229 0
-1062 -159 292 418 670 313 439 691 0
-1062 -96 -152 -201 0
-1062 -96 -159 -208 0
-1068 250 0
-1068 -166 0
-1068 -152 104 0
-1068 -152 202 0
-1068 -152 -5 0
-1068 -152 -12 0
-1068 -152 -33 0
-1068 -152 -40 0
-1068 -152 -19 -159 0
-1068 -152 -26 -159 0
-1068 -152 -61 -180 0
-1068 -152 -68 -180 0
-1068 -152 -124 -222 0
-1068 -152 -131 -222 0
-1068 -152 -138 -222 0
-1068 -152 -145 -222 0
-1068 -152 306 432 684 327 453 705 0
-1068 -159 104 0
-1068 -159 209 0
-1068 -159 -5 0
-1068 -159 -12 0
-1068 -159 -33 0
-1068 -159 -40 0
-1068 -159 -19 -166 0
-1068 -159 -26 -166 0
-1068 -159 -61 -187 0
-1068 -159 -68 -187 0
-1068 -159 -124 -229 0
-1068 -159 -131 -229 0
-1068 -159 -138 -229 0
-1068 -159 -145 -229 0
-1068 -159 313 439 691 334 460 712 0
-1068 -103 -152 -201 0
-1068 -103 -159 -208 0
-1074 250 0
-1074 -166 0
-1074 -152 111 0
-1074 -152 202 0
-1074 -152 -5 0
-1074 -152 -12 0
-1074 -152 -19 0
-1074 -152 -40 0
-1074 -152 -26 -159 0
-1074 -152 -33 -159 0
-1074 -152 -68 -180 0
-1074 -152 -75 -180 0
-1074 -152 -131 -222 0
-1074 -152 -138 -222 0
-1074 -152 -145 -222 0
-1074 -152 327 453 705 348 474 726 0
-1074 -159 111 0
-1074 -159 209 0
-1074 -159 -5 0
-1074 -159 -12 0
-1074 -159 -19 0
-1074 -159 -40 0
-1074 -159 -26 -166 0
-1074 -159 -33 -166 0
-1074 -159 -68 -187 0
-1074 -159 -75 -187 0
-1074 -159 -131 -229 0
-1074 -159 -138 -229 0
-1074 -159 -145 -229 0
-1074 -159 334 460 712 355 481 733 0
-1074 -110 -152 -201 0
-1074 -110 -159 -208 0
-1080 250 0
-1080 -166 0
-1080 -152 118 0
-1080 -152 202 0
-1080 -152 -5 0
-1080 -152 -12 0
-1080 -152 -19 0
-1080 -152 -26 0
-1080 -152 -33 -159 0
-1080 -152 -40 -159 0
-1080 -152 -75 -180 0
-1080 -152 -82 -180 0
-1080 -152 -138 -222 0
-1080 -152 -145 -222 0
-1080 -152 348 474 726 369 495 747 0
-1080 -159 118 0
-1080 -159 209 0
-1080 -159 -5 0
-1080 -159 -12 0
-1080 -159 -19 0
-1080 -159 -26 0
-1080 -159 -33 -166 0
-1080 -159 -40 -166 0
-1080 -159 -75 -187 0
-1080 -159 -82 -187 0
-1080 -159 -138 -229 0
-1080 -159 -145 -229 0
-1080 -159 355 481 733 376 502 754 0
-1080 -117 -152 -201 0
-1080 -117 -159 -208 0
-1086 250 0
-1086 -187 0
-1086 -173 90 0
-1086 -173 202 0
-1086 -173 -61 0
-1086 -173 -68 0
-1086 -173 -75 0
-1086 -173 -82 0
-1086 -173 -5 -159 0
-1086 -173 -12 -159 0
-1086 -173 -47 -180 0
-1086 -173 -54 -180 0
-1086 -173 -124 -222 0
-1086 -173 -131 -222 0
-1086 -173 264 390 642 285 411 663 0
-1086 -180 90 0
-1086 -180 209 0
-1086 -180 -61 0
-1086 -180 -68 0
-1086 -180 -75 0
-1086 -180 -82 0
-1086 -180 -5 -166 0
-1086 -180 -12 -166 0
-1086 -180 -47 -187 0
-1086 -180 -54 -187 0
-1086 -180 -124 -229 0
-1086 -180 -131 -229 0
-1086 -180 271 397 649 292 418 670 0
-1086 -89 -173 -201 0
-1086 -89 -180 -208 0
-1092 250 0
-1092 -187 0
-1092 -173 97 0
-1092 -173 202 0
-1092 -173 -47 0
-1092 -173 -68 0
-1092 -173 -75 0
-1092 -173 -82 0
-1092 -173 -12 -159 0
-1092 -173 -19 -159 0
-1092 -173 -54 -180 0
-1092 -173 -61 -180 0
-1092 -173 -124 -222 0
-1092 -173 -131 -222 0
-1092 -173 -138 -222 0
-1092 -173 285 411 663 306 432 684 0
-1092 -180 97 0
-1092 -180 209 0
-1092 -180 -47 0
-1092 -180 -68 0
-1092 -180 -75 0
-1092 -180 -82 0
-1092 -180 -12 -166 0
-1092 -180 -19 -166 0
-1092 -180 -54 -187 0
-1092 -180 -61 -187 0
-1092 -180 -124 -229 0
-1092 -180 -131 -229 0
-1092 -180 -138 -229 0
-1092 -180 292 418 670 313 439 691 0
-1092 -96 -173 -201 0
-1092 -96 -180 -208 0
-1098 250 0
-1098 -187 0
-1098 -173 104 0
-1098 -173 202 0
-1098 -173 -47 0
-1098 -173 -54 0
-1098 -173 -75 0
-1098 -173 -82 0
-1098 -173 -19 -159 0
-1098 -173 -26 -159 0
-1098 -173 -61 -180 0
-1098 -173 -68 -180 0
-1098 -173 -124 -222 0
-1098 -173 -131 -222 0
-1098 -173 -138 -222 0
-1098 -173 -145 -222 0
-1098 -173 306 432 684 327 453 705 0
-1098 -180 104 0
-1098 -180 209 0
-1098 -180 -47 0
-1098 -180 -54 0
-1098 -180 -75 0
-1098 -180 -82 0
-1098 -180 -19 -166 0
-1098 -180 -26 -166 0
-1098 -180 -61 -187 0
-1098 -180 -68 -187 0
-1098 -180 -124 -229 0
-1098 -180 -131 -229 0
-1098 -180 -138 -229 0
-1098 -180 -145 -229 0
-1098 -180 313 439 691 334 460 712 0
-1098 -103 -173 -201 0
-1098 -103 -180 -208 0
-1104 250 0
-1104 -187 0
-1104 -173 111 0
-1104 -173 202 0
-1104 -173 -47 0
-1104 -173 -54 0
-1104 -173 -61 0
-1104 -173 -82 0
-1104 -173 -26 -159 0
-1104 -173 -33 -159 0
-1104 -173 -68 -180 0
-1104 -173 -75 -180 0
-1104 -173 -131 -222 0
-1104 -173 -138 -222 0
-1104 -173 -145 -222 0
-1104 -173 327 453 705 348 474 726 0
-1104 -180 111 0
-1104 -180 209 0
-1104 -180 -47 0
-1104 -180 -54 0
-1104 -180 -61 0
-1104 -180 -82 0
-1104 -180 -26 -166 0
-1104 -180 -33 -166 0
-1104 -180 -68 -187 0
-1104 -180 -75 -187 0
-1104 -180 -131 -229 0
-1104 -180 -138 -229 0
-1104 -180 -145 -229 0
-1104 -180 334 460 712 355 481 733 0
-1104 -110 -173 -201 0
-1104 -110 -180 -208 0
-1110 250 0
-1110 -187 0
-1110 -173 118 0
-1110 -173 202 0
-1110 -173 -47 0
-1110 -173 -54 0
-1110 -173 -61 0
-1110 -173 -68 0
-1110 -173 -33 -159 0
-1110 -173 -40 -159 0
-1110 -173 -75 -180 0
-1110 -173 -82 -180 0
-1110 -173 -138 -222 0
-1110 -173 -145 -222 0
-1110 -173 348 474 726 369 495 747 0
-1110 -180 118 0
-1110 -180 209 0
-1110 -180 -47 0
-1110 -180 -54 0
-1110 -180 -61 0
-1110 -180 -68 0
-1110 -180 -33 -166 0
-1110 -180 -40 -166 0
-1110 -180 -75 -187 0
-1110 -180 -82 -187 0
-1110 -180 -138 -229 0
-1110 -180 -145 -229 0
-1110 -180 355 481 733 376 502 754 0
-1110 -117 -173 -201 0
-1110 -117 -180 -208 0
-1116 250 0
-1116 -229 0
-1116 -215 90 0
-1116 -215 202 0
-1116 -215 -138 0
-1116 -215 -145 0
-1116 -215 -5 -159 0
-1116 -215 -12 -159 0
-1116 -215 -47 -180 0
-1116 -215 -54 -180 0
-1116 -215 -124 -222 0
-1116 -215 -131 -222 0
-1116 -215 264 390 642 285 411 663 0
-1116 -222 90 0
-1116 -222 209 0
-1116 -222 -138 0
-1116 -222 -145 0
-1116 -222 -5 -166 0
-1116 -222 -12 -166 0
-1116 -222 -47 -187 0
-1116 -222 -54 -187 0
-1116 -222 -124 -229 0
-1116 -222 -131 -229 0
-1116 -222 271 397 649 292 418 670 0
-1116 -89 -215 -201 0
-1116 -89 -222 -208 0
-1122 250 0
-1122 -229 0
-1122 -215 97 0
-1122 -215 202 0
-1122 -215 -145 0
-1122 -215 -12 -159 0
-1122 -215 -19 -159 0
-1122 -215 -54 -180 0
-1122 -215 -61 -180 0
-1122 -215 -124 -222 0
-1122 -215 -131 -222 0
-1122 -215 -138 -222 0
-1122 -215 285 411 663 306 432 684 0
-1122 -222 97 0
-1122 -222 209 0
-1122 -222 -145 0
-1122 -222 -12 -166 0
-1122 -222 -19 -166 0
-1122 -222 -54 -187 0
-1122 -222 -61 -187 0
-1122 -222 -124 -229 0
-1122 -222 -131 -229 0
-1122 -222 -138 -229 0
-1122 -222 292 418 670 313 439 691 0
-1122 -96 -215 -201 0
-1122 -96 -222 -208 0
-1128 250 0
-1128 -229 0
-1128 -215 104 0
-1128 -215 202 0
-1128 -215 -19 -159 0
-1128 -215 -26 -159 0
-1128 -215 -61 -180 0
-1128 -215 -68 -180 0
-1128 -215 -124 -222 0
-1128 -215 -131 -222 0
-1128 -215 -138 -222 0
-1128 -215 -145 -222 0
-1128 -215 306 432 684 327 453 705 0
-1128 -222 104 0
-1128 -222 209 0
-1128 -222 -19 -166 0
-1128 -222 -26 -166 0
-1128 -222 -61 -187 0
-1128 -222 -68 -187 0
-1128 -222 -124 -229 0
-1128 -222 -131 -229 0
-1128 -222 -138 -229 0
-1128 -222 -145 -229 0
-1128 -222 313 439 691 334 460 712 0
-1128 -103 -215 -201 0
-1128 -103 -222 -208 0
-1134 250 0
-1134 -229 0
-1134 -215 111 0
-1134 -215 202 0
-1134 -215 -124 0
-1134 -215 -26 -159 0
-1134 -215 -33 -159 0
-1134 -215 -68 -180 0
-1134 -215 -75 -180 0
-1134 -215 -131 -222 0
-1134 -215 -138 -222 0
-1134 -215 -145 -222 0
-1134 -215 327 453 705 348 474 726 0
-1134 -222 111 0
-1134 -222 209 0
-1134 -222 -124 0
-1134 -222 -26 -166 0
-1134 -222 -33 -166 0
-1134 -222 -68 -187 0
-1134 -222 -75 -187 0
-1134 -222 -131 -229 0
-1134 -222 -138 -229 0
-1134 -222 -145 -229 0
-1134 -222 334 460 712 355 481 733 0
-1134 -110 -215 -201 0
-1134 -110 -222 -208 0
-1140 250 0
-1140 -229 0
-1140 -215 118 0
-1140 -215 202 0
-1140 -215 -124 0
-1140 -215 -131 0
-1140 -215 -33 -159 0
-1140 -215 -40 -159 0
-1140 -215 -75 -180 0
-1140 -215 -82 -180 0
-1140 -215 -138 -222 0
-1140 -215 -145 -222 0
-1140 -215 348 474 726 369 495 747 0
-1140 -222 118 0
-1140 -222 209 0
-1140 -222 -124 0
-1140 -222 -131 0
-1140 -222 -33 -166 0
-1140 -222 -40 -166 0
-1140 -222 -75 -187 0
-1140 -222 -82 -187 0
-1140 -222 -138 -229 0
-1140 -222 -145 -229 0
-1140 -222 355 481 733 376 502 754 0
-1140 -117 -215 -201 0
-1140 -117 -222 -208 0
-1146 250 0
-1146 90 0
-1146 195 0
-1146 -89 -194 0
-1146 -5 -152 0
-1146 -12 -152 0
-1146 -47 -173 0
-1146 -54 -173 0
-1146 -124 -215 0
-1146 -131 -215 0
-1152 250 0
-1152 97 0
-1152 195 0
-1152 -96 -194 0
-1152 -12 -152 0
-1152 -19 -152 0
-1152 -54 -173 0
-1152 -61 -173 0
-1152 -124 -215 0
-1152 -131 -215 0
-1152 -138 -215 0
-1158 250 0
-1158 104 0
-1158 195 0
-1158 -103 -194 0
-1158 -19 -152 0
-1158 -26 -152 0
-1158 -61 -173 0
-1158 -68 -173 0
-1158 -124 -215 0
-1158 -131 -215 0
-1158 -138 -215 0
-1158 -145 -215 0
-1164 250 0
-1164 111 0
-1164 195 0
-1164 -110 -194 0
-1164 -26 -152 0
-1164 -33 -152 0
-1164 -68 -173 0
-1164 -75 -173 0
-1164 -131 -215 0
-1164 -138 -215 0
-1164 -145 -215 0
-1170 250 0
-1170 118 0
-1170 195 0
-1170 -117 -194 0
-1170 -33 -152 0
-1170 -40 -152 0
-1170 -75 -173 0
-1170 -82 -173 0
-1170 -138 -215 0
-1170 -145 -215 0
-1176 257 0
-1176 -166 0
-1176 -152 125 0
-1176 -152 223 0
-1176 -152 -26 0
-1176 -152 -33 0
-1176 -152 -40 0
-1176 -152 -5 -159 0
-1176 -152 -12 -159 0
-1176 -152 -19 -159 0
-1176 -152 -47 -180 0
-1176 -152 -54 -180 0
-1176 -152 -61 -180 0
-1176 -152 -89 -201 0
-1176 -152 -96 -201 0
-1176 -152 -103 -201 0
-1176 -152 264 390 516 285 411 537 0
-1176 -152 264 390 516 306 432 558 0
-1176 -152 285 411 537 306 432 558 0
-1176 -159 125 0
-1176 -159 230 0
-1176 -159 -26 0
-1176 -159 -33 0
-1176 -159 -40 0
-1176 -159 -5 -166 0
-1176 -159 -12 -166 0
-1176 -159 -19 -166 0
-1176 -159 -47 -187 0
-1176 -159 -54 -187 0
-1176 -159 -61 -187 0
-1176 -159 -89 -208 0
-1176 -159 -96 -208 0
-1176 -159 -103 -208 0
-1176 -159 271 397 523 292 418 544 0
-1176 -159 271 397 523 313 439 565 0
-1176 -159 292 418 544 313 439 565 0
-1176 -124 -152 -222 0
-1176 -124 -159 -229 0
-1182 257 0
-1182 -166 0
-1182 -152 132 0
-1182 -152 223 0
-1182 -152 -5 0
-1182 -152 -33 0
-1182 -152 -40 0
-1182 -152 -12 -159 0
-1182 -152 -19 -159 0
-1182 -152 -26 -159 0
-1182 -152 -54 -180 0
-1182 -152 -61 -180 0
-1182 -152 -68 -180 0
-1182 -152 -89 -201 0
-1182 -152 -96 -201 0
-1182 -152 -103 -201 0
-1182 -152 -110 -201 0
-1182 -152 285 411 537 306 432 558 0
-1182 -152 285 411 537 327 453 579 0
-1182 -152 306 432 558 327 453 579 0
-1182 -159 132 0
-1182 -159 230 0
-1182 -159 -5 0
-1182 -159 -33 0
-1182 -159 -40 0
-1182 -159 -12 -166 0
-1182 -159 -19 -166 0
-1182 -159 -26 -166 0
-1182 -159 -54 -187 0
-1182 -159 -61 -187 0
-1182 -159 -68 -187 0
-1182 -159 -89 -208 0
-1182 -159 -96 -208 0
-1182 -159 -103 -208 0
-1182 -159 -110 -208 0
-1182 -159 292 418 544 313 439 565 0
-1182 -159 292 418 544 334 460 586 0
-1182 -159 313 439 565 334 460 586 0
-1182 -131 -152 -222 0
-1182 -131 -159 -229 0
-1188 257 0
-1188 -166 0
-1188 -152 139 0
-1188 -152 223 0
-1188 -152 -5 0
-1188 -152 -12 0
-1188 -152 -40 0
-1188 -152 -19 -159 0
-1188 -152 -26 -159 0
-1188 -152 -33 -159 0
-1188 -152 -61 -180 0
-1188 -152 -68 -180 0
-1188 -152 -75 -180 0
-1188 -152 -96 -201 0
-1188 -152 -103 -201 0
-1188 -152 -110 -201 0
-1188 -152 -117 -201 0
-1188 -152 306 432 558 327 453 579 0
-1188 -152 306 432 558 348 474 600 0
-1188 -152 327 453 579 348 474 600 0
-1188 -159 139 0
-1188 -159 230 0
-1188 -159 -5 0
-1188 -159 -12 0
-1188 -159 -40 0
-1188 -159 -19 -166 0
-1188 -159 -26 -166 0
-1188 -159 -33 -166 0
-1188 -159 -61 -187 0
-1188 -159 -68 -187 0
-1188 -159 -75 -187 0
-1188 -159 -96 -208 0
-1188 -159 -103 -208 0
-1188 -159 -110 -208 0
-1188 -159 -117 -208 0
-1188 -159 313 439 565 334 460 586 0
-1188 -159 313 439 565 355 481 607 0
-1188 -159 334 460 586 355 481 607 0
-1188 -138 -152 -222 0
-1188 -138 -159 -229 0
-1194 257 0
-1194 -166 0
-1194 -152 146 0
-1194 -152 223 0
-1194 -152 -5 0
-1194 -152 -12 0
-1194 -152 -19 0
-1194 -152 -26 -159 0
-1194 -152 -33 -159 0
-1194 -152 -40 -159 0
-1194 -152 -68 -180 0
-1194 -152 -75 -180 0
-1194 -152 -82 -180 0
-1194 -152 -103 -201 0
-1194 -152 -110 -201 0
-1194 -152 -117 -201 0
-1194 -152 327 453 579 348 474 600 0
-1194 -152 327 453 579 369 495 621 0
-1194 -152 348 474 600 369 495 621 0
-1194 -159 146 0
-1194 -159 230 0
-1194 -159 -5 0
-1194 -159 -12 0
-1194 -159 -19 0
-1194 -159 -26 -166 0
-1194 -159 -33 -166 0
-1194 -159 -40 -166 0
-1194 -159 -68 -187 0
-1194 -159 -75 -187 0
-1194 -159 -82 -187 0
-1194 -159 -103 -208 0
-1194 -159 -110 -208 0
-1194 -159 -117 -208 0
-1194 -159 334 460 586 355 481 607 0
-1194 -159 334 460 586 376 502 628 0
-1194 -159 355 481 607 376 502 628 0
-1194 -145 -152 -222 0
-1194 -145 -159 -229 0
-1200 257 0
-1200 -187 0
-1200 -173 125 0
-1200 -173 223 0
-1200 -173 -68 0
-1200 -173 -75 0
-1200 -173 -82 0
-1200 -173 -5 -159 0
-1200 -173 -12 -159 0
-1200 -173 -19 -159 0
-1200 -173 -47 -180 0
-1200 -173 -54 -180 0
-1200 -173 -61 -180 0
-1200 -173 -89 -201 0
-1200 -173 -96 -201 0
-1200 -173 -103 -201 0
-1200 -173 264 390 516 285 411 537 0
-1200 -173 264 390 516 306 432 558 0
-1200 -173 285 411 537 306 432 558 0
-1200 -180 125 0
-1200 -180 230 0
-1200 -180 -68 0
-1200 -180 -75 0
-1200 -180 -82 0
-1200 -180 -5 -166 0
-1200 -180 -12 -166 0
-1200 -180 -19 -166 0
-1200 -180 -47 -187 0
-1200 -180 -54 -187 0
-1200 -180 -61 -187 0
-1200 -180 -89 -208 0
-1200 -180 -96 -208 0
-1200 -180 -103 -208 0
-1200 -180 271 397 523 292 418 544 0
-1200 -180 271 397 523 313 439 565 0
-1200 -180 292 418 544 313 439 565 0
-1200 -124 -173 -222 0
-1200 -124 -180 -229 0
-1206 257 0
-1206 -187 0
-1206 -173 132 0
-1206 -173 223 0
-1206 -173 -47 0
-1206 -173 -75 0
-1206 -173 -82 0
-1206 -173 -12 -159 0
-1206 -173 -19 -159 0
-1206 -173 -26 -159 0
-1206 -173 -54 -180 0
-1206 -173 -61 -180 0
-1206 -173 -68 -180 0
-1206 -173 -89 -201 0
-1206 -173 -96 -201 0
-1206 -173 -103 -201 0
-1206 -173 -110 -201 0
-1206 -173 285 411 537 306 432 558 0
-1206 -173 285 411 537 327 453 579 0
-1206 -173 306 432 558 327 453 579 0
-1206 -180 132 0
-1206 -180 230 0
-1206 -180 -47 0
-1206 -180 -75 0
-1206 -180 -82 0
-1206 -180 -12 -166 0
-1206 -180 -19 -166 0
-1206 -180 -26 -166 0
-1206 -180 -54 -187 0
-1206 -180 -61 -187 0
-1206 -180 -68 -187 0
-1206 -180 -89 -208 0
-1206 -180 -96 -208 0
-1206 -180 -103 -208 0
-1206 -180 -110 -208 0
-1206 -180 292 418 544 313 439 565 0
-1206 -180 292 418 544 334 460 586 0
-1206 -180 313 439 565 334 460 586 0
-1206 -131 -173 -222 0
-1206 -131 -180 -229 0
-1212 257 0
-1212 -187 0
-1212 -173 139 0
-1212 -173 223 0
-1212 -173 -47 0
-1212 -173 -54 0
-1212 -173 -82 0
-1212 -173 -19 -159 0
-1212 -173 -26 -159 0
-1212 -173 -33 -159 0
-1212 -173 -61 -180 0
-1212 -173 -68 -180 0
-1212 -173 -75 -180 0
-1212 -173 -96 -201 0
-1212 -173 -103 -201 0
-1212 -173 -110 -201 0
-1212 -173 -117 -201 0
-1212 -173 306 432 558 327 453 579 0
-1212 -173 306 432 558 348 474 600 0
-1212 -173 327 453 579 348 474 600 0
-1212 -180 139 0
-1212 -180 230 0
-1212 -180 -47 0
-1212 -180 -54 0
-1212 -180 -82 0
-1212 -180 -19 -166 0
-1212 -180 -26 -166 0
-1212 -180 -33 -166 0
-1212 -180 -61 -187 0
-1212 -180 -68 -187 0
-1212 -180 -75 -187 0
-1212 -180 -96 -208 0
-1212 -180 -103 -208 0
-1212 -180 -110 -208 0
-1212 -180 -117 -208 0
-1212 -180 313 439 565 334 460 586 0
-1212 -180 313 439 565 355 481 607 0
-1212 -180 334 460 586 355 481 607 0
-1212 -138 -173 -222 0
-1212 -138 -180 -229 0
-1218 257 0
-1218 -187 0
-1218 -173 146 0
-1218 -173 223 0
-1218 -173 -47 0
-1218 -173 -54 0
-1218 -173 -61 0
-1218 -173 -26 -159 0
-1218 -173 -33 -159 0
-1218 -173 -40 -159 0
-1218 -173 -68 -180 0
-1218 -173 -75 -180 0
-1218 -173 -82 -180 0
-1218 -173 -103 -201 0
-1218 -173 -110 -201 0
-1218 -173 -117 -201 0
-1218 -173 327 453 579 348 474 600 0
-1218 -173 327 453 579 369 495 621 0
-1218 -173 348 474 600 369 495 621 0
-1218 -180 146 0
-1218 -180 230 0
-1218 -180 -47 0
-1218 -180 -54 0
-1218 -180 -61 0
-1218 -180 -26 -166 0
-1218 -180 -33 -166 0
-1218 -180 -40 -166 0
-1218 -180 -68 -187 0
-1218 -180 -75 -187 0
-1218 -180 -82 -187 0
-1218 -180 -103 -208 0
-1218 -180 -110 -208 0
-1218 -180 -117 -208 0
-1218 -180 334 460 586 355 481 607 0
-1218 -180 334 460 586 376 502 628 0
-1218 -180 355 481 607 376 502 628 0
-1218 -145 -173 -222 0
-1218 -145 -180 -229 0
-1224 257 0
-1224 -208 0
-1224 -194 125 0
-1224 -194 223 0
-1224 -194 -110 0
-1224 -194 -117 0
-1224 -194 -5 -159 0
-1224 -194 -12 -159 0
-1224 -194 -19 -159 0
-1224 -194 -47 -180 0
-1224 -194 -54 -180 0
-1224 -194 -61 -180 0
-1224 -194 -89 -201 0
-1224 -194 -96 -201 0
-1224 -194 -103 -201 0
-1224 -194 264 390 516 285 411 537 0
-1224 -194 264 390 516 306 432 558 0
-1224 -194 285 411 537 306 432 558 0
-1224 -201 125 0
-1224 -201 230 0
-1224 -201 -110 0
-1224 -201 -117 0
-1224 -201 -5 -166 0
-1224 -201 -12 -166 0
-1224 -201 -19 -166 0
-1224 -201 -47 -187 0
-1224 -201 -54 -187 0
-1224 -201 -61 -187 0
-1224 -201 -89 -208 0
-1224 -201 -96 -208 0
-1224 -201 -103 -208 0
-1224 -201 271 397 523 292 418 544 0
-1224 -201 271 397 523 313 439 565 0
-1224 -201 292 418 544 313 439 565 0
-1224 -124 -194 -222 0
-1224 -124 -201 -229 0
-1230 257 0
-1230 -208 0
-1230 -194 132 0
-1230 -194 223 0
-1230 -194 -117 0
-1230 -194 -12 -159 0
-1230 -194 -19 -159 0
-1230 -194 -26 -159 0
-1230 -194 -54 -180 0
-1230 -194 -61 -180 0
-1230 -194 -68 -180 0
-1230 -194 -89 -201 0
-1230 -194 -96 -201 0
-1230 -194 -103 -201 0
-1230 -194 -110 -201 0
-1230 -194 285 411 537 306 432 558 0
-1230 -194 285 411 537 327 453 579 0
-1230 -194 306 432 558 327 453 579 0
-1230 -201 132 0
-1230 -201 230 0
-1230 -201 -117 0
-1230 -201 -12 -166 0
-1230 -201 -19 -166 0
-1230 -201 -26 -166 0
-1230 -201 -54 -187 0
-1230 -201 -61 -187 0
-1230 -201 -68 -187 0
-1230 -201 -89 -208 0
-1230 -201 -96 -208 0
-1230 -201 -103 -208 0
-1230 -201 -110 -208 0
-1230 -201 292 418 544 313 439 565 0
-1230 -201 292 418 544 334 460 586 0
-1230 -201 313 439 565 334 460 586 0
-1230 -131 -194 -222 0
-1230 -131 -201 -229 0
-1236 257 0
-1236 -208 0
-1236 -194 139 0
-1236 -194 223 0
-1236 -194 -89 0
-1236 -194 -19 -159 0
-1236 -194 -26 -159 0
-1236 -194 -33 -159 0
-1236 -194 -61 -180 0
-1236 -194 -68 -180 0
-1236 -194 -75 -180 0
-1236 -194 -96 -201 0
-1236 -194 -103 -201 0
-1236 -194 -110 -201 0
-1236 -194 -117 -201 0
-1236 -194 306 432 558 327 453 579 0
-1236 -194 306 432 558 348 474 600 0
-1236 -194 327 453 579 348 474 600 0
-1236 -201 139 0
-1236 -201 230 0
-1236 -201 -89 0
-1236 -201 -19 -166 0
-1236 -201 -26 -166 0
-1236 -201 -33 -166 0
-1236 -201 -61 -187 0
-1236 -201 -68 -187 0
-1236 -201 -75 -187 0
-1236 -201 -96 -208 0
-1236 -201 -103 -208 0
-1236 -201 -110 -208 0
-1236 -201 -117 -208 0
-1236 -201 313 439 565 334 460 586 0
-1236 -201 313 439 565 355 481 607 0
-1236 -201 334 460 586 355 481 607 0
-1236 -138 -194 -222 0
-1236 -138 -201 -229 0
-1242 257 0
-1242 -208 0
-1242 -194 146 0
-1242 -194 223 0
-1242 -194 -89 0
-1242 -194 -96 0
-1242 -194 -26 -159 0
-1242 -194 -33 -159 0
-1242 -194 -40 -159 0
-1242 -194 -68 -180 0
-1242 -194 -75 -180 0
-1242 -194 -82 -180 0
-1242 -194 -103 -201 0
-1242 -194 -110 -201 0
-1242 -194 -117 -201 0
-1242 -194 327 453 579 348 474 600 0
-1242 -194 327 453 579 369 495 621 0
-1242 -194 348 474 600 369 495 621 0
-1242 -201 146 0
-1242 -201 230 0
-1242 -201 -89 0
-1242 -201 -96 0
-1242 -201 -26 -166 0
-1242 -201 -33 -166 0
-1242 -201 -40 -166 0
-1242 -201 -68 -187 0
-1242 -201 -75 -187 0
-1242 -201 -82 -187 0
-1242 -201 -103 -208 0
-1242 -201 -110 -208 0
-1242 -201 -117 -208 0
-1242 -201 334 460 586 355 481 607 0
-1242 -201 334 460 586 376 502 628 0
-1242 -201 355 481 607 376 502 628 0
-1242 -145 -194 -222 0
-1242 -145 -201 -229 0
-1248 257 0
-1248 125 0
-1248 216 0
-1248 -124 -215 0
-1248 -5 -152 0
-1248 -12 -152 0
-1248 -19 -152 0
-1248 -47 -173 0
-1248 -54 -173 0
-1248 -61 -173 0
-1248 -89 -194 0
-1248 -96 -194 0
-1248 -103 -194 0
-1254 257 0
-1254 132 0
-1254 216 0
-1254 -131 -215 0
-1254 -12 -152 0
-1254 -19 -152 0
-1254 -26 -152 0
-1254 -54 -173 0
-1254 -61 -173 0
-1254 -68 -173 0
-1254 -89 -194 0
-1254 -96 -194 0
-1254 -103 -194 0
-1254 -110 -194 0
-1260 257 0
-1260 139 0
-1260 216 0
-1260 -138 -215 0
-1260 -19 -152 0
-1260 -26 -152 0
-1260 -33 -152 0
-1260 -61 -173 0
-1260 -68 -173 0
-1260 -75 -173 0
-1260 -96 -194 0
-1260 -103 -194 0
-1260 -110 -194 0
-1260 -117 -194 0
-1266 257 0
-1266 146 0
-1266 216 0
-1266 -145 -215 0
-1266 -26 -152 0
-1266 -33 -152 0
-1266 -40 -152 0
-1266 -68 -173 0
-1266 -75 -173 0
-1266 -82 -173 0
-1266 -103 -194 0
-1266 -110 -194 0
-1266 -117 -194 0
769 775 781 787 793 799 805 811 817 823 829 835 841 847 853 859 865 871 877 883 889 895 901 907 913 919 925 931 937 943 949 955 961 967 973 979 985 991 997 1003 1009 1015 1021 1027 1033 1039 1045 1051 1057 1063 1069 1075 1081 1087 1093 1099 1105 1111 1117 1123 1129 1135 1141 1147 1153 1159 1165 1171 1177 1183 1189 1195 1201 1207 1213 1219 1225 1231 1237 1243 1249 1255 1261 1267 0
-769 -775 0
-769 -781 0
-769 -787 0
-769 -793 0
-769 -799 0
-769 -805 0
-769 -811 0
-769 -817 0
-769 -823 0
-769 -829 0
-769 -835 0
-769 -841 0
-769 -847 0
-769 -853 0
-769 -859 0
-769 -865 0
-769 -871 0
-769 -877 0
-769 -883 0
-769 -889 0
-769 -895 0
-769 -901 0
-769 -907 0
-769 -913 0
-769 -919 0
-769 -925 0
-769 -931 0
-769 -937 0
-769 -943 0
-769 -949 0
-769 -955 0
-769 -961 0
-769 -967 0
-769 -973 0
-769 -979 0
-769 -985 0
-769 -991 0
-769 -997 0
-769 -1003 0
-769 -1009 0
-769 -1015 0
-769 -1021 0
-769 -1027 0
-769 -1033 0
-769 -1039 0
-769 -1045 0
-769 -1051 0
-769 -1057 0
-769 -1063 0
-769 -1069 0
-769 -1075 0
-769 -1081 0
-769 -1087 0
-769 -1093 0
-769 -1099 0
-769 -1105 0
-769 -1111 0
-769 -1117 0
-769 -1123 0
-769 -1129 0
-769 -1135 0
-769 -1141 0
-769 -1147 0
-769 -1153 0
-769 -1159 0
-769 -1165 0
-769 -1171 0
-769 -1177 0
-769 -1183 0
-769 -1189 0
-769 -1195 0
-769 -1201 0
-769 -1207 0
-769 -1213 0
-769 -1219 0
-769 -1225 0
-769 -1231 0
-769 -1237 0
-769 -1243 0
-769 -1249 0
-769 -1255 0
-769 -1261 0
-769 -1267 0
-775 -781 0
-775 -787 0
-775 -793 0
-775 -799 0
-775 -805 0
-775 -811 0
-775 -817 0
-775 -823 0
-775 -829 0
-775 -835 0
-775 -841 0
-775 -847 0
-775 -853 0
-775 -859 0
-775 -865 0
-775 -871 0
-775 -877 0
-775 -883 0
-775 -889 0
-775 -895 0
-775 -901 0
-775 -907 0
-775 -913 0
-775 -919 0
-775 -925 0
-775 -931 0
-775 -937 0
-775 -943 0
-775 -949 0
-775 -955 0
-775 -961 0
-775 -967 0
-775 -973 0
-775 -979 0
-775 -985 0
-775 -991 0
-775 -997 0
-775 -1003 0
-775 -1009 0
-775 -1015 0
-775 -1021 0
-775 -1027 0
-775 -1033 0
-775 -1039 0
-775 -1045 0
-775 -1051 0
-775 -1057 0
-775 -1063 0
-775 -1069 0
-775 -1075 0
-775 -1081 0
-775 -1087 0
-775 -1093 0
-775 -1099 0
-775 -1105 0
-775 -1111 0
-775 -1117 0
-775 -1123 0
-775 -1129 0
-775 -1135 0
-775 -1141 0
-775 -1147 0
-775 -1153 0
-775 -1159 0
-775 -1165 0
-775 -1171 0
-775 -1177 0
-775 -1183 0
-775 -1189 0
-775 -1195 0
-775 -1201 0
-775 -1207 0
-775 -1213 0
-775 -1219 0
-775 -1225 0
-775 -1231 0
-775 -1237 0
-775 -1243 0
-775 -1249 0
-775 -1255 0
-775 -1261 0
-775 -1267 0
-781 -787 0
-781 -793 0
-781 -799 0
-781 -805 0
-781 -811 0
-781 -817 0
-781 -823 0
-781 -829 0
-781 -835 0
-781 -841 0
-781 -847 0
-781 -853 0
-781 -859 0
-781 -865 0
-781 -871 0
-781 -877 0
-781 -883 0
-781 -889 0
-781 -895 0
-781 -901 0
-781 -907 0
-781 -913 0
-781 -919 0
-781 -925 0
-781 -931 0
-781 -937 0
-781 -943 0
-781 -949 0
-781 -955 0
-781 -961 0
-781 -967 0
-781 -973 0
-781 -979 0
-781 -985 0
-781 -991 0
-781 -997 0
-781 -1003 0
-781 -1009 0
-781 -1015 0
-781 -1021 0
-781 -1027 0
-781 -1033 0
-781 -1039 0
-781 -1045 0
-781 -1051 0
-781 -1057 0
-781 -1063 0
-781 -1069 0
-781 -1075 0
-781 -1081 0
-781 -1087 0
-781 -1093 0
-781 -1099 0
-781 -1105 0
-781 -1111 0
-781 -1117 0
-781 -1123 0
-781 -1129 0
-781 -1135 0
-781 -1141 0
-781 -1147 0
-781 -1153 0
-781 -1159 0
-781 -1165 0
-781 -1171 0
-781 -1177 0
-781 -1183 0
-781 -1189 0
-781 -1195 0
-781 -1201 0
-781 -1207 0
-781 -1213 0
-781 -1219 0
-781 -1225 0
-781 -1231 0
-781 -1237 0
-781 -1243 0
-781 -1249 0
-781 -1255 0
-781 -1261 0
-781 -1267 0
-787 -793 0
-787 -799 0
-787 -805 0
-787 -811 0
-787 -817 0
-787 -823 0
-787 -829 0
-787 -835 0
-787 -841 0
-787 -847 0
-787 -853 0
-787 -859 0
-787 -865 0
-787 -871 0
-787 -877 0
-787 -883 0
-787 -889 0
-787 -895 0
-787 -901 0
-787 -907 0
-787 -913 0
-787 -919 0
-787 -925 0
-787 -931 0
-787 -937 0
-787 -943 0
-787 -949 0
-787 -955 0
-787 -961 0
-787 -967 0
-787 -973 0
-787 -979 0
-787 -985 0
-787 -991 0
-787 -997 0
-787 -1003 0
-787 -1009 0
-787 -1015 0
-787 -1021 0
-787 -1027 0
-787 -1033 0
-787 -1039 0
-787 -1045 0
-787 -1051 0
-787 -1057 0
-787 -1063 0
-787 -1069 0
-787 -1075 0
-787 -1081 0
-787 -1087 0
-787 -1093 0
-787 -1099 0
-787 -1105 0
-787 -1111 0
-787 -1117 0
-787 -1123 0
-787 -1129 0
-787 -1135 0
-787 -1141 0
-787 -1147 0
-787 -1153 0
-787 -1159 0
-787 -1165 0
-787 -1171 0
-787 -1177 0
-787 -1183 0
-787 -1189 0
-787 -1195 0
-787 -1201 0
-787 -1207 0
-787 -1213 0
-787 -1219 0
-787 -1225 0
-787 -1231 0
-787 -1237 0
-787 -1243 0
-787 -1249 0
-787 -1255 0
-787 -1261 0
-787 -1267 0
-793 -799 0
-793 -805 0
-793 -811 0
-793 -817 0
-793 -823 0
-793 -829 0
-793 -835 0
-793 -841 0
-793 -847 0
-793 -853 0
-793 -859 0
-793 -865 0
-793 -871 0
-793 -877 0
-793 -883 0
-793 -889 0
-793 -895 0
-793 -901 0
-793 -907 0
-793 -913 0
-793 -919 0
-793 -925 0
-793 -931 0
-793 -937 0
-793 -943 0
-793 -949 0
-793 -955 0
-793 -961 0
-793 -967 0
-793 -973 0
-793 -979 0
-793 -985 0
-793 -991 0
-793 -997 0
-793 -1003 0
-793 -1009 0
-793 -1015 0
-793 -1021 0
-793 -1027 0
-793 -1033 0
-793 -1039 0
-793 -1045 0
-793 -1051 0
-793 -1057 0
-793 -1063 0
-793 -1069 0
-793 -1075 0
-793 -1081 0
-793 -1087 0
-793 -1093 0
-793 -1099 0
-793 -1105 0
-793 -1111 0
-793 -1117 0
-793 -1123 0
-793 -1129 0
-793 -1135 0
-793 -1141 0
-793 -1147 0
-793 -1153 0
-793 -1159 0
-793 -1165 0
-793 -1171 0
-793 -1177 0
-793 -1183 0
-793 -1189 0
-793 -1195 0
-793 -1201 0
-793 -1207 0
-793 -1213 0
-793 -1219 0
-793 -1225 0
-793 -1231 0
-793 -1237 0
-793 -1243 0
-793 -1249 0
-793 -1255 0
-793 -1261 0
-793 -1267 0
-799 -805 0
-799 -811 0
-799 -817 0
-799 -823 0
-799 -829 0
-799 -835 0
-799 -841 0
-799 -847 0
-799 -853 0
-799 -859 0
-799 -865 0
-799 -871 0
-799 -877 0
-799 -883 0
-799 -889 0
-799 -895 0
-799 -901 0
-799 -907 0
-799 -913 0
-799 -919 0
-799 -925 0
-799 -931 0
-799 -937 0
-799 -943 0
-799 -949 0
-799 -955 0
-799 -961 0
-799 -967 0
-799 -973 0
-799 -979 0
-799 -985 0
-799 -991 0
-799 -997 0
-799 -1003 0
-799 -1009 0
-799 -1015 0
-799 -1021 0
-799 -1027 0
-799 -1033 0
-799 -1039 0
-799 -1045 0
-799 -1051 0
-799 -1057 0
-799 -1063 0
-799 -1069 0
-799 -1075 0
-799 -1081 0
-799 -1087 0
-799 -1093 0
-799 -1099 0
-799 -1105 0
-799 -1111 0
-799 -1117 0
-799 -1123 0
-799 -1129 0
-799 -1135 0
-799 -1141 0
-799 -1147 0
-799 -1153 0
-799 -1159 0
-799 -1165 0
-799 -1171 0
-799 -1177 0
-799 -1183 0
-799 -1189 0
-799 -1195 0
-799 -1201 0
-799 -1207 0
-799 -1213 0
-799 -1219 0
-799 -1225 0
-799 -1231 0
-799 -1237 0
-799 -1243 0
-799 -1249 0
-799 -1255 0
-799 -1261 0
-799 -1267 0
-805 -811 0
-805 -817 0
-805 -823 0
-805 -829 0
-805 -835 0
-805 -841 0
-805 -847 0
-805 -853 0
-805 -859 0
-805 -865 0
-805 -871 0
-805 -877 0
-805 -883 0
-805 -889 0
-805 -895 0
-805 -901 0
-805 -907 0
-805 -913 0
-805 -919 0
-805 -925 0
-805 -931 0
-805 -937 0
-805 -943 0
-805 -949 0
-805 -955 0
-805 -961 0
-805 -967 0
-805 -973 0
-805 -979 0
-805 -985 0
-805 -991 0
-805 -997 0
-805 -1003 0
-805 -1009 0
-805 -1015 0
-805 -1021 0
-805 -1027 0
-805 -1033 0
-805 -1039 0
-805 -1045 0
-805 -1051 0
-805 -1057 0
-805 -1063 0
-805 -1069 0
-805 -1075 0
-805 -1081 0
-805 -1087 0
-805 -1093 0
-805 -1099 0
-805 -1105 0
-805 -1111 0
-805 -1117 0
-805 -1123 0
-805 -1129 0
-805 -1135 0
-805 -1141 0
-805 -1147 0
-805 -1153 0
-805 -1159 0
-805 -1165 0
-805 -1171 0
-805 -1177 0
-805 -1183 0
-805 -1189 0
-805 -1195 0
-805 -1201 0
-805 -1207 0
-805 -1213 0
-805 -1219 0
-805 -1225 0
-805 -1231 0
-805 -1237 0
-805 -1243 0
-805 -1249 0
-805 -1255 0
-805 -1261 0
-805 -1267 0
-811 -817 0
-811 -823 0
-811 -829 0
-811 -835 0
-811 -841 0
-811 -847 0
-811 -853 0
-811 -859 0
-811 -865 0
-811 -871 0
-811 -877 0
-811 -883 0
-811 -889 0
-811 -895 0
-811 -901 0
-811 -907 0
-811 -913 0
-811 -919 0
-811 -925 0
-811 -931 0
-811 -937 0
-811 -943 0
-811 -949 0
-811 -955 0
-811 -961 0
-811 -967 0
-811 -973 0
-811 -979 0
-811 -985 0
-811 -991 0
-811 -997 0
-811 -1003 0
-811 -1009 0
-811 -1015 0
-811 -1021 0
-811 -1027 0
-811 -1033 0
-811 -1039 0
-811 -1045 0
-811 -1051 0
-811 -1057 0
-811 -1063 0
-811 -1069 0
-811 -1075 0
-811 -1081 0
-811 -1087 0
-811 -1093 0
-811 -1099 0
-811 -1105 0
-811 -1111 0
-811 -1117 0
-811 -1123 0
-811 -1129 0
-811 -1135 0
-811 -1141 0
-811 -1147 0
-811 -1153 0
-811 -1159 0
-811 -1165 0
-811 -1171 0
-811 -1177 0
-811 -1183 0
-811 -1189 0
-811 -1195 0
-811 -1201 0
-811 -1207 0
-811 -1213 0
-811 -1219 0
-811 -1225 0
-811 -1231 0
-811 -1237 0
-811 -1243 0
-811 -1249 0
-811 -1255 0
-811 -1261 0
-811 -1267 0
-817 -823 0
-817 -829 0
-817 -835 0
-817 -841 0
-817 -847 0
-817 -853 0
-817 -859 0
-817 -865 0
-817 -871 0
-817 -877 0
-817 -883 0
-817 -889 0
-817 -895 0
-817 -901 0
-817 -907 0
-817 -913 0
-817 -919 0
-817 -925 0
-817 -931 0
-817 -937 0
-817 -943 0
-817 -949 0
-817 -955 0
-817 -961 0
-817 -967 0
-817 -973 0
-817 -979 0
-817 -985 0
-817 -991 0
-817 -997 0
-817 -1003 0
-817 -1009 0
-817 -1015 0
-817 -1021 0
-817 -1027 0
-817 -1033 0
-817 -1039 0
-817 -1045 0
-817 -1051 0
-817 -1057 0
-817 -1063 0
-817 -1069 0
-817 -1075 0
-817 -1081 0
-817 -1087 0
-817 -1093 0
-817 -1099 0
-817 -1105 0
-817 -1111 0
-817 -1117 0
-817 -1123 0
-817 -1129 0
-817 -1135 0
-817 -1141 0
-817 -1147 0
-817 -1153 0
-817 -1159 0
-817 -1165 0
-817 -1171 0
-817 -1177 0
-817 -1183 0
-817 -1189 0
-817 -1195 0
-817 -1201 0
-817 -1207 0
-817 -1213 0
-817 -1219 0
-817 -1225 0
-817 -1231 0
-817 -1237 0
-817 -1243 0
-817 -1249 0
-817 -1255 0
-817 -1261 0
-817 -1267 0
-823 -829 0
-823 -835 0
-823 -841 0
-823 -847 0
-823 -853 0
-823 -859 0
-823 -865 0
-823 -871 0
-823 -877 0
-823 -883 0
-823 -889 0
-823 -895 0
-823 -901 0
-823 -907 0
-823 -913 0
-823 -919 0
-823 -925 0
-823 -931 0
-823 -937 0
-823 -943 0
-823 -949 0
-823 -955 0
-823 -961 0
-823 -967 0
-823 -973 0
-823 -979 0
-823 -985 0
-823 -991 0
-823 -997 0
-823 -1003 0
-823 -1009 0
-823 -1015 0
-823 -1021 0
-823 -1027 0
-823 -1033 0
-823 -1039 0
-823 -1045 0
-823 -1051 0
-823 -1057 0
-823 -1063 0
-823 -1069 0
-823 -1075 0
-823 -1081 0
-823 -1087 0
-823 -1093 0
-823 -1099 0
-823 -1105 0
-823 -1111 0
-823 -1117 0
-823 -1123 0
-823 -1129 0
-823 -1135 0
-823 -1141 0
-823 -1147 0
-823 -1153 0
-823 -1159 0
-823 -1165 0
-823 -1171 0
-823 -1177 0
-823 -1183 0
-823 -1189 0
-823 -1195 0
-823 -1201 0
-823 -1207 0
-823 -1213 0
-823 -1219 0
-823 -1225 0
-823 -1231 0
-823 -1237 0
-823 -1243 0
-823 -1249 0
-823 -1255 0
-823 -1261 0
-823 -1267 0
-829 -835 0
-829 -841 0
-829 -847 0
-829 -853 0
-829 -859 0
-829 -865 0
-829 -871 0
-829 -877 0
-829 -883 0
-829 -889 0
-829 -895 0
-829 -901 0
-829 -907 0
-829 -913 0
-829 -919 0
-829 -925 0
-829 -931 0
-829 -937 0
-829 -943 0
-829 -949 0
-829 -955 0
-829 -961 0
-829 -967 0
-829 -973 0
-829 -979 0
-829 -985 0
-829 -991 0
-829 -997 0
-829 -1003 0
-829 -1009 0
-829 -1015 0
-829 -1021 0
-829 -1027 0
-829 -1033 0
-829 -1039 0
-829 -1045 0
-829 -1051 0
-829 -1057 0
-829 -1063 0
-829 -1069 0
-829 -1075 0
-829 -1081 0
-829 -1087 0
-829 -1093 0
-829 -1099 0
-829 -1105 0
-829 -1111 0
-829 -1117 0
-829 -1123 0
-829 -1129 0
-829 -1135 0
-829 -1141 0
-829 -1147 0
-829 -1153 0
-829 -1159 0
-829 -1165 0
-829 -1171 0
-829 -1177 0
-829 -1183 0
-829 -1189 0
-829 -1195 0
-829 -1201 0
-829 -1207 0
-829 -1213 0
-829 -1219 0
-829 -1225 0
-829 -1231 0
-829 -1237 0
-829 -1243 0
-829 -1249 0
-829 -1255 0
-829 -1261 0
-829 -1267 0
-835 -841 0
-835 -847 0
-835 -853 0
-835 -859 0
-835 -865 0
-835 -871 0
-835 -877 0
-835 -883 0
-835 -889 0
-835 -895 0
-835 -901 0
-835 -907 0
-835 -913 0
-835 -919 0
-835 -925 0
-835 -931 0
-835 -937 0
-835 -943 0
-835 -949 0
-835 -955 0
-835 -961 0
-835 -967 0
-835 -973 0
-835 -979 0
-835 -985 0
-835 -991 0
-835 -997 0
-835 -1003 0
-835 -1009 0
-835 -1015 0
-835 -1021 0
-835 -1027 0
-835 -1033 0
-835 -1039 0
-835 -1045 0
-835 -1051 0
-835 -1057 0
-835 -1063 0
-835 -1069 0
-835 -1075 0
-835 -1081 0
-835 -1087 0
-835 -1093 0
-835 -1099 0
-835 -1105 0
-835 -1111 0
-835 -1117 0
-835 -1123 0
-835 -1129 0
-835 -1135 0
-835 -1141 0
-835 -1147 0
-835 -1153 0
-835 -1159 0
-835 -1165 0
-835 -1171 0
-835 -1177 0
-835 -1183 0
-835 -1189 0
-835 -1195 0
-835 -1201 0
-835 -1207 0
-835 -1213 0
-835 -1219 0
-835 -1225 0
-835 -1231 0
-835 -1237 0
-835 -1243 0
-835 -1249 0
-835 -1255 0
-835 -1261 0
-835 -1267 0
-841 -847 0
-841 -853 0
-841 -859 0
-841 -865 0
-841 -871 0
-841 -877 0
-841 -883 0
-841 -889 0
-841 -895 0
-841 -901 0
-841 -907 0
-841 -913 0
-841 -919 0
-841 -925 0
-841 -931 0
-841 -937 0
-841 -943 0
-841 -949 0
-841 -955 0
-841 -961 0
-841 -967 0
-841 -973 0
-841 -979 0
-841 -985 0
-841 -991 0
-841 -997 0
-841 -1003 0
-841 -1009 0
-841 -1015 0
-841 -1021 0
-841 -1027 0
-841 -1033 0
-841 -1039 0
-841 -1045 0
-841 -1051 0
-841 -1057 0
-841 -1063 0
-841 -1069 0
-841 -1075 0
-841 -1081 0
-841 -1087 0
-841 -1093 0
-841 -1099 0
-841 -1105 0
-841 -1111 0
-841 -1117 0
-841 -1123 0
-841 -1129 0
-841 -1135 0
-841 -1141 0
-841 -1147 0
-841 -1153 0
-841 -1159 0
-841 -1165 0
-841 -1171 0
-841 -1177 0
-841 -1183 0
-841 -1189 0
-841 -1195 0
-841 -1201 0
-841 -1207 0
-841 -1213 0
-841 -1219 0
-841 -1225 0
-841 -1231 0
-841 -1237 0
-841 -1243 0
-841 -1249 0
-841 -1255 0
-841 -1261 0
-841 -1267 0
-847 -853 0
-847 -859 0
-847 -865 0
-847 -871 0
-847 -877 0
-847 -883 0
-847 -889 0
-847 -895 0
-847 -901 0
-847 -907 0
-847 -913 0
-847 -919 0
-847 -925 0
-847 -931 0
-847 -937 0
-847 -943 0
-847 -949 0
-847 -955 0
-847 -961 0
-847 -967 0
-847 -973 0
-847 -979 0
-847 -985 0
-847 -991 0
-847 -997 0
-847 -1003 0
-847 -1009 0
-847 -1015 0
-847 -1021 0
-847 -1027 0
-847 -1033 0
-847 -1039 0
-847 -1045 0
-847 -1051 0
-847 -1057 0
-847 -1063 0
-847 -1069 0
-847 -1075 0
-847 -1081 0
-847 -1087 0
-847 -1093 0
-847 -1099 0
-847 -1105 0
-847 -1111 0
-847 -1117 0
-847 -1123 0
-847 -1129 0
-847 -1135 0
-847 -1141 0
-847 -1147 0
-847 -1153 0
-847 -1159 0
-847 -1165 0
-847 -1171 0
-847 -1177 0
-847 -1183 0
-847 -1189 0
-847 -1195 0
-847 -1201 0
-847 -1207 0
-847 -1213 0
-847 -1219 0
-847 -1225 0
-847 -1231 0
-847 -1237 0
-847 -1243 0
-847 -1249 0
-847 -1255 0
-847 -1261 0
-847 -1267 0
-853 -859 0
-853 -865 0
-853 -871 0
-853 -877 0
-853 -883 0
-853 -889 0
-853 -895 0
-853 -901 0
-853 -907 0
-853 -913 0
-853 -919 0
-853 -925 0
-853 -931 0
-853 -937 0
-853 -943 0
-853 -949 0
-853 -955 0
-853 -961 0
-853 -967 0
-853 -973 0
-853 -979 0
-853 -985 0
-853 -991 0
-853 -997 0
-853 -1003 0
-853 -1009 0
-853 -1015 0
-853 -1021 0
-853 -1027 0
-853 -1033 0
-853 -1039 0
-853 -1045 0
-853 -1051 0
-853 -1057 0
-853 -1063 0
-853 -1069 0
-853 -1075 0
-853 -1081 0
-853 -1087 0
-853 -1093 0
-853 -1099 0
-853 -1105 0
-853 -1111 0
-853 -1117 0
-853 -1123 0
-853 -1129 0
-853 -1135 0
-853 -1141 0
-853 -1147 0
-853 -1153 0
-853 -1159 0
-853 -1165 0
-853 -1171 0
-853 -1177 0
-853 -1183 0
-853 -1189 0
-853 -1195 0
-853 -1201 0
-853 -1207 0
-853 -1213 0
-853 -1219 0
-853 -1225 0
-853 -1231 0
-853 -1237 0
-853 -1243 0
-853 -1249 0
-853 -1255 0
-853 -1261 0
-853 -1267 0
-859 -865 0
-859 -871 0
-859 -877 0
-859 -883 0
-859 -889 0
-859 -895 0
-859 -901 0
-859 -907 0
-859 -913 0
-859 -919 0
-859 -925 0
-859 -931 0
-859 -937 0
-859 -943 0
-859 -949 0
-859 -955 0
-859 -961 0
-859 -967 0
-859 -973 0
-859 -979 0
-859 -985 0
-859 -991 0
-859 -997 0
-859 -1003 0
-859 -1009 0
-859 -1015 0
-859 -1021 0
-859 -1027 0
-859 -1033 0
-859 -1039 0
-859 -1045 0
-859 -1051 0
-859 -1057 0
-859 -1063 0
-859 -1069 0
-859 -1075 0
-859 -1081 0
-859 -1087 0
-859 -1093 0
-859 -1099 0
-859 -1105 0
-859 -1111 0
-859 -1117 0
-859 -1123 0
-859 -1129 0
-859 -1135 0
-859 -1141 0
-859 -1147 0
-859 -1153 0
-859 -1159 0
-859 -1165 0
-859 -1171 0
-859 -1177 0
-859 -1183 0
-859 -1189 0
-859 -1195 0
-859 -1201 0
-859 -1207 0
-859 -1213 0
-859 -1219 0
-859 -1225 0
-859 -1231 0
-859 -1237 0
-859 -1243 0
-859 -1249 0
-859 -1255 0
-859 -1261 0
-859 -1267 0
-865 -871 0
-865 -877 0
-865 -883 0
-865 -889 0
-865 -895 0
-865 -901 0
-865 -907 0
-865 -913 0
-865 -919 0
-865 -925 0
-865 -931 0
-865 -937 0
-865 -943 0
-865 -949 0
-865 -955 0
-865 -961 0
-865 -967 0
-865 -973 0
-865 -979 0
-865 -985 0
-865 -991 0
-865 -997 0
-865 -1003 0
-865 -1009 0
-865 -1015 0
-865 -1021 0
-865 -1027 0
-865 -1033 0
-865 -1039 0
-865 -1045 0
-865 -1051 0
-865 -1057 0
-865 -1063 0
-865 -1069 0
-865 -1075 0
-865 -1081 0
-865 -1087 0
-865 -1093 0
-865 -1099 0
-865 -1105 0
-865 -1111 0
-865 -1117 0
-865 -1123 0
-865 -1129 0
-865 -1135 0
-865 -1141 0
-865 -1147 0
-865 -1153 0
-865 -1159 0
-865 -1165 0
-865 -1171 0
-865 -1177 0
-865 -1183 0
-865 -1189 0
-865 -1195 0
-865 -1201 0
-865 -1207 0
-865 -1213 0
-865 -1219 0
-865 -1225 0
-865 -1231 0
-865 -1237 0
-865 -1243 0
-865 -1249 0
-865 -1255 0
-865 -1261 0
-865 -1267 0
-871 -877 0
-871 -883 0
-871 -889 0
-871 -895 0
-871 -901 0
-871 -907 0
-871 -913 0
-871 -919 0
-871 -925 0
-871 -931 0
-871 -937 0
-871 -943 0
-871 -949 0
-871 -955 0
-871 -961 0
-871 -967 0
-871 -973 0
-871 -979 0
-871 -985 0
-871 -991 0
-871 -997 0
-871 -1003 0
-871 -1009 0
-871 -1015 0
-871 -1021 0
-871 -1027 0
-871 -1033 0
-871 -1039 0
-871 -1045 0
-871 -1051 0
-871 -1057 0
-871 -1063 0
-871 -1069 0
-871 -1075 0
-871 -1081 0
-871 -1087 0
-871 -1093 0
-871 -1099 0
-871 -1105 0
-871 -1111 0
-871 -1117 0
-871 -1123 0
-871 -1129 0
-871 -1135 0
-871 -1141 0
-871 -1147 0
-871 -1153 0
-871 -1159 0
-871 -1165 0
-871 -1171 0
-871 -1177 0
-871 -1183 0
-871 -1189 0
-871 -1195 0
-871 -1201 0
-871 -1207 0
-871 -1213 0
-871 -1219 0
-871 -1225 0
-871 -1231 0
-871 -1237 0
-871 -1243 0
-871 -1249 0
-871 -1255 0
-871 -1261 0
-871 -1267 0
-877 -883 0
-877 -889 0
-877 -895 0
-877 -901 0
-877 -907 0
-877 -913 0
-877 -919 0
-877 -925 0
-877 -931 0
-877 -937 0
-877 -943 0
-877 -949 0
-877 -955 0
-877 -961 0
-877 -967 0
-877 -973 0
-877 -979 0
-877 -985 0
-877 -991 0
-877 -997 0
-877 -1003 0
-877 -1009 0
-877 -1015 0
-877 -1021 0
-877 -1027 0
-877 -1033 0
-877 -1039 0
-877 -1045 0
-877 -1051 0
-877 -1057 0
-877 -1063 0
-877 -1069 0
-877 -1075 0
-877 -1081 0
-877 -1087 0
-877 -1093 0
-877 -1099 0
-877 -1105 0
-877 -1111 0
-877 -1117 0
-877 -1123 0
-877 -1129 0
-877 -1135 0
-877 -1141 0
-877 -1147 0
-877 -1153 0
-877 -1159 0
-877 -1165 0
-877 -1171 0
-877 -1177 0
-877 -1183 0
-877 -1189 0
-877 -1195 0
-877 -1201 0
-877 -1207 0
-877 -1213 0
-877 -1219 0
-877 -1225 0
-877 -1231 0
-877 -1237 0
-877 -1243 0
-877 -1249 0
-877 -1255 0
-877 -1261 0
-877 -1267 0
-883 -889 0
-883 -895 0
-883 -901 0
-883 -907 0
-883 -913 0
-883 -919 0
-883 -925 0
-883 -931 0
-883 -937 0
-883 -943 0
-883 -949 0
-883 -955 0
-883 -961 0
-883 -967 0
-883 -973 0
-883 -979 0
-883 -985 0
-883 -991 0
-883 -997 0
-883 -1003 0
-883 -1009 0
-883 -1015 0
-883 -1021 0
-883 -1027 0
-883 -1033 0
-883 -1039 0
-883 -1045 0
-883 -1051 0
-883 -1057 0
-883 -1063 0
-883 -1069 0
-883 -1075 0
-883 -1081 0
-883 -1087 0
-883 -1093 0
-883 -1099 0
-883 -1105 0
-883 -1111 0
-883 -1117 0
-883 -1123 0
-883 -1129 0
-883 -1135 0
-883 -1141 0
-883 -1147 0
-883 -1153 0
-883 -1159 0
-883 -1165 0
-883 -1171 0
-883 -1177 0
-883 -1183 0
-883 -1189 0
-883 -1195 0
-883 -1201 0
-883 -1207 0
-883 -1213 0
-883 -1219 0
-883 -1225 0
-883 -1231 0
-883 -1237 0
-883 -1243 0
-883 -1249 0
-883 -1255 0
-883 -1261 0
-883 -1267 0
-889 -895 0
-889 -901 0
-889 -907 0
-889 -913 0
-889 -919 0
-889 -925 0
-889 -931 0
-889 -937 0
-889 -943 0
-889 -949 0
-889 -955 0
-889 -961 0
-889 -967 0
-889 -973 0
-889 -979 0
-889 -985 0
-889 -991 0
-889 -997 0
-889 -1003 0
-889 -1009 0
-889 -1015 0
-889 -1021 0
-889 -1027 0
-889 -1033 0
-889 -1039 0
-889 -1045 0
-889 -1051 0
-889 -1057 0
-889 -1063 0
-889 -1069 0
-889 -1075 0
-889 -1081 0
-889 -1087 0
-889 -1093 0
-889 -1099 0
-889 -1105 0
-889 -1111 0
-889 -1117 0
-889 -1123 0
-889 -1129 0
-889 -1135 0
-889 -1141 0
-889 -1147 0
-889 -1153 0
-889 -1159 0
-889 -1165 0
-889 -1171 0
-889 -1177 0
-889 -1183 0
-889 -1189 0
-889 -1195 0
-889 -1201 0
-889 -1207 0
-889 -1213 0
-889 -1219 0
-889 -1225 0
-889 -1231 0
-889 -1237 0
-889 -1243 0
-889 -1249 0
-889 -1255 0
-889 -1261 0
-889 -1267 0
-895 -901 0
-895 -907 0
-895 -913 0
-895 -919 0
-895 -925 0
-895 -931 0
-895 -937 0
-895 -943 0
-895 -949 0
-895 -955 0
-895 -961 0
-895 -967 0
-895 -973 0
-895 -979 0
-895 -985 0
-895 -991 0
-895 -997 0
-895 -1003 0
-895 -1009 0
-895 -1015 0
-895 -1021 0
-895 -1027 0
-895 -1033 0
-895 -1039 0
-895 -1045 0
-895 -1051 0
-895 -1057 0
-895 -1063 0
-895 -1069 0
-895 -1075 0
-895 -1081 0
-895 -1087 0
-895 -1093 0
-895 -1099 0
-895 -1105 0
-895 -1111 0
-895 -1117 0
-895 -1123 0
-895 -1129 0
-895 -1135 0
-895 -1141 0
-895 -1147 0
-895 -1153 0
-895 -1159 0
-895 -1165 0
-895 -1171 0
-895 -1177 0
-895 -1183 0
-895 -1189 0
-895 -1195 0
-895 -1201 0
-895 -1207 0
-895 -1213 0
-895 -1219 0
-895 -1225 0
-895 -1231 0
-895 -1237 0
-895 -1243 0
-895 -1249 0
-895 -1255 0
-895 -1261 0
-895 -1267 0
-901 -907 0
-901 -913 0
-901 -919 0
-901 -925 0
-901 -931 0
-901 -937 0
-901 -943 0
-901 -949 0
-901 -955 0
-901 -961 0
-901 -967 0
-901 -973 0
-901 -979 0
-901 -985 0
-901 -991 0
-901 -997 0
-901 -1003 0
-901 -1009 0
-901 -1015 0
-901 -1021 0
-901 -1027 0
-901 -1033 0
-901 -1039 0
-901 -1045 0
-901 -1051 0
-901 -1057 0
-901 -1063 0
-901 -1069 0
-901 -1075 0
-901 -1081 0
-901 -1087 0
-901 -1093 0
-901 -1099 0
-901 -1105 0
-901 -1111 0
-901 -1117 0
-901 -1123 0
-901 -1129 0
-901 -1135 0
-901 -1141 0
-901 -1147 0
-901 -1153 0
-901 -1159 0
-901 -1165 0
-901 -1171 0
-901 -1177 0
-901 -1183 0
-901 -1189 0
-901 -1195 0
-901 -1201 0
-901 -1207 0
-901 -1213 0
-901 -1219 0
-901 -1225 0
-901 -1231 0
-901 -1237 0
-901 -1243 0
-901 -1249 0
-901 -1255 0
-901 -1261 0
-901 -1267 0
-907 -913 0
-907 -919 0
-907 -925 0
-907 -931 0
-907 -937 0
-907 -943 0
-907 -949 0
-907 -955 0
-907 -961 0
-907 -967 0
-907 -973 0
-907 -979 0
-907 -985 0
-907 -991 0
-907 -997 0
-907 -1003 0
-907 -1009 0
-907 -1015 0
-907 -1021 0
-907 -1027 0
-907 -1033 0
-907 -1039 0
-907 -1045 0
-907 -1051 0
-907 -1057 0
-907 -1063 0
-907 -1069 0
-907 -1075 0
-907 -1081 0
-907 -1087 0
-907 -1093 0
-907 -1099 0
-907 -1105 0
-907 -1111 0
-907 -1117 0
-907 -1123 0
-907 -1129 0
-907 -1135 0
-907 -1141 0
-907 -1147 0
-907 -1153 0
-907 -1159 0
-907 -1165 0
-907 -1171 0
-907 -1177 0
-907 -1183 0
-907 -1189 0
-907 -1195 0
-907 -1201 0
-907 -1207 0
-907 -1213 0
-907 -1219 0
-907 -1225 0
-907 -1231 0
-907 -1237 0
-907 -1243 0
-907 -1249 0
-907 -1255 0
-907 -1261 0
-907 -1267 0
-913 -919 0
-913 -925 0
-913 -931 0
-913 -937 0
-913 -943 0
-913 -949 0
-913 -955 0
-913 -961 0
-913 -967 0
-913 -973 0
-913 -979 0
-913 -985 0
-913 -991 0
-913 -997 0
-913 -1003 0
-913 -1009 0
-913 -1015 0
-913 -1021 0
-913 -1027 0
-913 -1033 0
-913 -1039 0
-913 -1045 0
-913 -1051 0
-913 -1057 0
-913 -1063 0
-913 -1069 0
-913 -1075 0
-913 -1081 0
-913 -1087 0
-913 -1093 0
-913 -1099 0
-913 -1105 0
-913 -1111 0
-913 -1117 0
-913 -1123 0
-913 -1129 0
-913 -1135 0
-913 -1141 0
-913 -1147 0
-913 -1153 0
-913 -1159 0
-913 -1165 0
-913 -1171 0
-913 -1177 0
-913 -1183 0
-913 -1189 0
-913 -1195 0
-913 -1201 0
-913 -1207 0
-913 -1213 0
-913 -1219 0
-913 -1225 0
-913 -1231 0
-913 -1237 0
-913 -1243 0
-913 -1249 0
-913 -1255 0
-913 -1261 0
-913 -1267 0
-919 -925 0
-919 -931 0
-919 -937 0
-919 -943 0
-919 -949 0
-919 -955 0
-919 -961 0
-919 -967 0
-919 -973 0
-919 -979 0
-919 -985 0
-919 -991 0
-919 -997 0
-919 -1003 0
-919 -1009 0
-919 -1015 0
-919 -1021 0
-919 -1027 0
-919 -1033 0
-919 -1039 0
-919 -1045 0
-919 -1051 0
-919 -1057 0
-919 -1063 0
-919 -1069 0
-919 -1075 0
-919 -1081 0
-919 -1087 0
-919 -1093 0
-919 -1099 0
-919 -1105 0
-919 -1111 0
-919 -1117 0
-919 -1123 0
-919 -1129 0
-919 -1135 0
-919 -1141 0
-919 -1147 0
-919 -1153 0
-919 -1159 0
-919 -1165 0
-919 -1171 0
-919 -1177 0
-919 -1183 0
-919 -1189 0
-919 -1195 0
-919 -1201 0
-919 -1207 0
-919 -1213 0
-919 -1219 0
-919 -1225 0
-919 -1231 0
-919 -1237 0
-919 -1243 0
-919 -1249 0
-919 -1255 0
-919 -1261 0
-919 -1267 0
-925 -931 0
-925 -937 0
-925 -943 0
-925 -949 0
-925 -955 0
-925 -961 0
-925 -967 0
-925 -973 0
-925 -979 0
-925 -985 0
-925 -991 0
-925 -997 0
-925 -1003 0
-925 -1009 0
-925 -1015 0
-925 -1021 0
-925 -1027 0
-925 -1033 0
-925 -1039 0
-925 -1045 0
-925 -1051 0
-925 -1057 0
-925 -1063 0
-925 -1069 0
-925 -1075 0
-925 -1081 0
-925 -1087 0
-925 -1093 0
-925 -1099 0
-925 -1105 0
-925 -1111 0
-925 -1117 0
-925 -1123 0
-925 -1129 0
-925 -1135 0
-925 -1141 0
-925 -1147 0
-925 -1153 0
-925 -1159 0
-925 -1165 0
-925 -1171 0
-925 -1177 0
-925 -1183 0
-925 -1189 0
-925 -1195 0
-925 -1201 0
-925 -1207 0
-925 -1213 0
-925 -1219 0
-925 -1225 0
-925 -1231 0
-925 -1237 0
-925 -1243 0
-925 -1249 0
-925 -1255 0
-925 -1261 0
-925 -1267 0
-931 -937 0
-931 -943 0
-931 -949 0
-931 -955 0
-931 -961 0
-931 -967 0
-931 -973 0
-931 -979 0
-931 -985 0
-931 -991 0
-931 -997 0
-931 -1003 0
-931 -1009 0
-931 -1015 0
-931 -1021 0
-931 -1027 0
-931 -1033 0
-931 -1039 0
-931 -1045 0
-931 -1051 0
-931 -1057 0
-931 -1063 0
-931 -1069 0
-931 -1075 0
-931 -1081 0
-931 -1087 0
-931 -1093 0
-931 -1099 0
-931 -1105 0
-931 -1111 0
-931 -1117 0
-931 -1123 0
-931 -1129 0
-931 -1135 0
-931 -1141 0
-931 -1147 0
-931 -1153 0
-931 -1159 0
-931 -1165 0
-931 -1171 0
-931 -1177 0
-931 -1183 0
-931 -1189 0
-931 -1195 0
-931 -1201 0
-931 -1207 0
-931 -1213 0
-931 -1219 0
-931 -1225 0
-931 -1231 0
-931 -1237 0
-931 -1243 0
-931 -1249 0
-931 -1255 0
-931 -1261 0
-931 -1267 0
-937 -943 0
-937 -949 0
-937 -955 0
-937 -961 0
-937 -967 0
-937 -973 0
-937 -979 0
-937 -985 0
-937 -991 0
-937 -997 0
-937 -1003 0
-937 -1009 0
-937 -1015 0
-937 -1021 0
-937 -1027 0
-937 -1033 0
-937 -1039 0
-937 -1045 0
-937 -1051 0
-937 -1057 0
-937 -1063 0
-937 -1069 0
-937 -1075 0
-937 -1081 0
-937 -1087 0
-937 -1093 0
-937 -1099 0
-937 -1105 0
-937 -1111 0
-937 -1117 0
-937 -1123 0
-937 -1129 0
-937 -1135 0
-937 -1141 0
-937 -1147 0
-937 -1153 0
-937 -1159 0
-937 -1165 0
-937 -1171 0
-937 -1177 0
-937 -1183 0
-937 -1189 0
-937 -1195 0
-937 -1201 0
-937 -1207 0
-937 -1213 0
-937 -1219 0
-937 -1225 0
-937 -1231 0
-937 -1237 0
-937 -1243 0
-937 -1249 0
-937 -1255 0
-937 -1261 0
-937 -1267 0
-943 -949 0
-943 -955 0
-943 -961 0
-943 -967 0
-943 -973 0
-943 -979 0
-943 -985 0
-943 -991 0
-943 -997 0
-943 -1003 0
-943 -1009 0
-943 -1015 0
-943 -1021 0
-943 -1027 0
-943 -1033 0
-943 -1039 0
-943 -1045 0
-943 -1051 0
-943 -1057 0
-943 -1063 0
-943 -1069 0
-943 -1075 0
-943 -1081 0
-943 -1087 0
-943 -1093 0
-943 -1099 0
-943 -1105 0
-943 -1111 0
-943 -1117 0
-943 -1123 0
-943 -1129 0
-943 -1135 0
-943 -1141 0
-943 -1147 0
-943 -1153 0
-943 -1159 0
-943 -1165 0
-943 -1171 0
-943 -1177 0
-943 -1183 0
-943 -1189 0
-943 -1195 0
-943 -1201 0
-943 -1207 0
-943 -1213 0
-943 -1219 0
-943 -1225 0
-943 -1231 0
-943 -1237 0
-943 -1243 0
-943 -1249 0
-943 -1255 0
-943 -1261 0
-943 -1267 0
-949 -955 0
-949 -961 0
-949 -967 0
-949 -973 0
-949 -979 0
-949 -985 0
-949 -991 0
-949 -997 0
-949 -1003 0
-949 -1009 0
-949 -1015 0
-949 -1021 0
-949 -1027 0
-949 -1033 0
-949 -1039 0
-949 -1045 0
-949 -1051 0
-949 -1057 0
-949 -1063 0
-949 -1069 0
-949 -1075 0
-949 -1081 0
-949 -1087 0
-949 -1093 0
-949 -1099 0
-949 -1105 0
-949 -1111 0
-949 -1117 0
-949 -1123 0
-949 -1129 0
-949 -1135 0
-949 -1141 0
-949 -1147 0
-949 -1153 0
-949 -1159 0
-949 -1165 0
-949 -1171 0
-949 -1177 0
-949 -1183 0
-949 -1189 0
-949 -1195 0
-949 -1201 0
-949 -1207 0
-949 -1213 0
-949 -1219 0
-949 -1225 0
-949 -1231 0
-949 -1237 0
-949 -1243 0
-949 -1249 0
-949 -1255 0
-949 -1261 0
-949 -1267 0
-955 -961 0
-955 -967 0
-955 -973 0
-955 -979 0
-955 -985 0
-955 -991 0
-955 -997 0
-955 -1003 0
-955 -1009 0
-955 -1015 0
-955 -1021 0
-955 -1027 0
-955 -1033 0
-955 -1039 0
-955 -1045 0
-955 -1051 0
-955 -1057 0
-955 -1063 0
-955 -1069 0
-955 -1075 0
-955 -1081 0
-955 -1087 0
-955 -1093 0
-955 -1099 0
-955 -1105 0
-955 -1111 0
-955 -1117 0
-955 -1123 0
-955 -1129 0
-955 -1135 0
-955 -1141 0
-955 -1147 0
-955 -1153 0
-955 -1159 0
-955 -1165 0
-955 -1171 0
-955 -1177 0
-955 -1183 0
-955 -1189 0
-955 -1195 0
-955 -1201 0
-955 -1207 0
-955 -1213 0
-955 -1219 0
-955 -1225 0
-955 -1231 0
-955 -1237 0
-955 -1243 0
-955 -1249 0
-955 -1255 0
-955 -1261 0
-955 -1267 0
-961 -967 0
-961 -973 0
-961 -979 0
-961 -985 0
-961 -991 0
-961 -997 0
-961 -1003 0
-961 -1009 0
-961 -1015 0
-961 -1021 0
-961 -1027 0
-961 -1033 0
-961 -1039 0
-961 -1045 0
-961 -1051 0
-961 -1057 0
-961 -1063 0
-961 -1069 0
-961 -1075 0
-961 -1081 0
-961 -1087 0
-961 -1093 0
-961 -1099 0
-961 -1105 0
-961 -1111 0
-961 -1117 0
-961 -1123 0
-961 -1129 0
-961 -1135 0
-961 -1141 0
-961 -1147 0
-961 -1153 0
-961 -1159 0
-961 -1165 0
-961 -1171 0
-961 -1177 0
-961 -1183 0
-961 -1189 0
-961 -1195 0
-961 -1201 0
-961 -1207 0
-961 -1213 0
-961 -1219 0
-961 -1225 0
-961 -1231 0
-961 -1237 0
-961 -1243 0
-961 -1249 0
-961 -1255 0
-961 -1261 0
-961 -1267 0
-967 -973 0
-967 -979 0
-967 -985 0
-967 -991 0
-967 -997 0
-967 -1003 0
-967 -1009 0
-967 -1015 0
-967 -1021 0
-967 -1027 0
-967 -1033 0
-967 -1039 0
-967 -1045 0
-967 -1051 0
-967 -1057 0
-967 -1063 0
-967 -1069 0
-967 -1075 0
-967 -1081 0
-967 -1087 0
-967 -1093 0
-967 -1099 0
-967 -1105 0
-967 -1111 0
-967 -1117 0
-967 -1123 0
-967 -1129 0
-967 -1135 0
-967 -1141 0
-967 -1147 0
-967 -1153 0
-967 -1159 0
-967 -1165 0
-967 -1171 0
-967 -1177 0
-967 -1183 0
-967 -1189 0
-967 -1195 0
-967 -1201 0
-967 -1207 0
-967 -1213 0
-967 -1219 0
-967 -1225 0
-967 -1231 0
-967 -1237 0
-967 -1243 0
-967 -1249 0
-967 -1255 0
-967 -1261 0
-967 -1267 0
-973 -979 0
-973 -985 0
-973 -991 0
-973 -997 0
-973 -1003 0
-973 -1009 0
-973 -1015 0
-973 -1021 0
-973 -1027 0
-973 -1033 0
-973 -1039 0
-973 -1045 0
-973 -1051 0
-973 -1057 0
-973 -1063 0
-973 -1069 0
-973 -1075 0
-973 -1081 0
-973 -1087 0
-973 -1093 0
-973 -1099 0
-973 -1105 0
-973 -1111 0
-973 -1117 0
-973 -1123 0
-973 -1129 0
-973 -1135 0
-973 -1141 0
-973 -1147 0
-973 -1153 0
-973 -1159 0
-973 -1165 0
-973 -1171 0
-973 -1177 0
-973 -1183 0
-973 -1189 0
-973 -1195 0
-973 -1201 0
-973 -1207 0
-973 -1213 0
-973 -1219 0
-973 -1225 0
-973 -1231 0
-973 -1237 0
-973 -1243 0
-973 -1249 0
-973 -1255 0
-973 -1261 0
-973 -1267 0
-979 -985 0
-979 -991 0
-979 -997 0
-979 -1003 0
-979 -1009 0
-979 -1015 0
-979 -1021 0
-979 -1027 0
-979 -1033 0
-979 -1039 0
-979 -1045 0
-979 -1051 0
-979 -1057 0
-979 -1063 0
-979 -1069 0
-979 -1075 0
-979 -1081 0
-979 -1087 0
-979 -1093 0
-979 -1099 0
-979 -1105 0
-979 -1111 0
-979 -1117 0
-979 -1123 0
-979 -1129 0
-979 -1135 0
-979 -1141 0
-979 -1147 0
-979 -1153 0
-979 -1159 0
-979 -1165 0
-979 -1171 0
-979 -1177 0
-979 -1183 0
-979 -1189 0
-979 -1195 0
-979 -1201 0
-979 -1207 0
-979 -1213 0
-979 -1219 0
-979 -1225 0
-979 -1231 0
-979 -1237 0
-979 -1243 0
-979 -1249 0
-979 -1255 0
-979 -1261 0
-979 -1267 0
-985 -991 0
-985 -997 0
-985 -1003 0
-985 -1009 0
-985 -1015 0
-985 -1021 0
-985 -1027 0
-985 -1033 0
-985 -1039 0
-985 -1045 0
-985 -1051 0
-985 -1057 0
-985 -1063 0
-985 -1069 0
-985 -1075 0
-985 -1081 0
-985 -1087 0
-985 -1093 0
-985 -1099 0
-985 -1105 0
-985 -1111 0
-985 -1117 0
-985 -1123 0
-985 -1129 0
-985 -1135 0
-985 -1141 0
-985 -1147 0
-985 -1153 0
-985 -1159 0
-985 -1165 0
-985 -1171 0
-985 -1177 0
-985 -1183 0
-985 -1189 0
-985 -1195 0
-985 -1201 0
-985 -1207 0
-985 -1213 0
-985 -1219 0
-985 -1225 0
-985 -1231 0
-985 -1237 0
-985 -1243 0
-985 -1249 0
-985 -1255 0
-985 -1261 0
-985 -1267 0
-991 -997 0
-991 -1003 0
-991 -1009 0
-991 -1015 0
-991 -1021 0
-991 -1027 0
-991 -1033 0
-991 -1039 0
-991 -1045 0
-991 -1051 0
-991 -1057 0
-991 -1063 0
-991 -1069 0
-991 -1075 0
-991 -1081 0
-991 -1087 0
-991 -1093 0
-991 -1099 0
-991 -1105 0
-991 -1111 0
-991 -1117 0
-991 -1123 0
-991 -1129 0
-991 -1135 0
-991 -1141 0
-991 -1147 0
-991 -1153 0
-991 -1159 0
-991 -1165 0
-991 -1171 0
-991 -1177 0
-991 -1183 0
-991 -1189 0
-991 -1195 0
-991 -1201 0
-991 -1207 0
-991 -1213 0
-991 -1219 0
-991 -1225 0
-991 -1231 0
-991 -1237 0
-991 -1243 0
-991 -1249 0
-991 -1255 0
-991 -1261 0
-991 -1267 0
-997 -1003 0
-997 -1009 0
-997 -1015 0
-997 -1021 0
-997 -1027 0
-997 -1033 0
-997 -1039 0
-997 -1045 0
-997 -1051 0
-997 -1057 0
-997 -1063 0
-997 -1069 0
-997 -1075 0
-997 -1081 0
-997 -1087 0
-997 -1093 0
-997 -1099 0
-997 -1105 0
-997 -1111 0
-997 -1117 0
-997 -1123 0
-997 -1129 0
-997 -1135 0
-997 -1141 0
-997 -1147 0
-997 -1153 0
-997 -1159 0
-997 -1165 0
-997 -1171 0
-997 -1177 0
-997 -1183 0
-997 -1189 0
-997 -1195 0
-997 -1201 0
-997 -1207 0
-997 -1213 0
-997 -1219 0
-997 -1225 0
-997 -1231 0
-997 -1237 0
-997 -1243 0
-997 -1249 0
-997 -1255 0
-997 -1261 0
-997 -1267 0
-1003 -1009 0
-1003 -1015 0
-1003 -1021 0
-1003 -1027 0
-1003 -1033 0
-1003 -1039 0
-1003 -1045 0
-1003 -1051 0
-1003 -1057 0
-1003 -1063 0
-1003 -1069 0
-1003 -1075 0
-1003 -1081 0
-1003 -1087 0
-1003 -1093 0
-1003 -1099 0
-1003 -1105 0
-1003 -1111 0
-1003 -1117 0
-1003 -1123 0
-1003 -1129 0
-1003 -1135 0
-1003 -1141 0
-1003 -1147 0
-1003 -1153 0
-1003 -1159 0
-1003 -1165 0
-1003 -1171 0
-1003 -1177 0
-1003 -1183 0
-1003 -1189 0
-1003 -1195 0
-1003 -1201 0
-1003 -1207 0
-1003 -1213 0
-1003 -1219 0
-1003 -1225 0
-1003 -1231 0
-1003 -1237 0
-1003 -1243 0
-1003 -1249 0
-1003 -1255 0
-1003 -1261 0
-1003 -1267 0
-1009 -1015 0
-1009 -1021 0
-1009 -1027 0
-1009 -1033 0
-1009 -1039 0
-1009 -1045 0
-1009 -1051 0
-1009 -1057 0
-1009 -1063 0
-1009 -1069 0
-1009 -1075 0
-1009 -1081 0
-1009 -1087 0
-1009 -1093 0
-1009 -1099 0
-1009 -1105 0
-1009 -1111 0
-1009 -1117 0
-1009 -1123 0
-1009 -1129 0
-1009 -1135 0
-1009 -1141 0
-1009 -1147 0
-1009 -1153 0
-1009 -1159 0
-1009 -1165 0
-1009 -1171 0
-1009 -1177 0
-1009 -1183 0
-1009 -1189 0
-1009 -1195 0
-1009 -1201 0
-1009 -1207 0
-1009 -1213 0
-1009 -1219 0
-1009 -1225 0
-1009 -1231 0
-1009 -1237 0
-1009 -1243 0
-1009 -1249 0
-1009 -1255 0
-1009 -1261 0
-1009 -1267 0
-1015 -1021 0
-1015 -1027 0
-1015 -1033 0
-1015 -1039 0
-1015 -1045 0
-1015 -1051 0
-1015 -1057 0
-1015 -1063 0
-1015 -1069 0
-1015 -1075 0
-1015 -1081 0
-1015 -1087 0
-1015 -1093 0
-1015 -1099 0
-1015 -1105 0
-1015 -1111 0
-1015 -1117 0
-1015 -1123 0
-1015 -1129 0
-1015 -1135 0
-1015 -1141 0
-1015 -1147 0
-1015 -1153 0
-1015 -1159 0
-1015 -1165 0
-1015 -1171 0
-1015 -1177 0
-1015 -1183 0
-1015 -1189 0
-1015 -1195 0
-1015 -1201 0
-1015 -1207 0
-1015 -1213 0
-1015 -1219 0
-1015 -1225 0
-1015 -1231 0
-1015 -1237 0
-1015 -1243 0
-1015 -1249 0
-1015 -1255 0
-1015 -1261 0
-1015 -1267 0
-1021 -1027 0
-1021 -1033 0
-1021 -1039 0
-1021 -1045 0
-1021 -1051 0
-1021 -1057 0
-1021 -1063 0
-1021 -1069 0
-1021 -1075 0
-1021 -1081 0
-1021 -1087 0
-1021 -1093 0
-1021 -1099 0
-1021 -1105 0
-1021 -1111 0
-1021 -1117 0
-1021 -1123 0
-1021 -1129 0
-1021 -1135 0
-1021 -1141 0
-1021 -1147 0
-1021 -1153 0
-1021 -1159 0
-1021 -1165 0
-1021 -1171 0
-1021 -1177 0
-1021 -1183 0
-1021 -1189 0
-1021 -1195 0
-1021 -1201 0
-1021 -1207 0
-1021 -1213 0
-1021 -1219 0
-1021 -1225 0
-1021 -1231 0
-1021 -1237 0
-1021 -1243 0
-1021 -1249 0
-1021 -1255 0
-1021 -1261 0
-1021 -1267 0
-1027 -1033 0
-1027 -1039 0
-1027 -1045 0
-1027 -1051 0
-1027 -1057 0
-1027 -1063 0
-1027 -1069 0
-1027 -1075 0
-1027 -1081 0
-1027 -1087 0
-1027 -1093 0
-1027 -1099 0
-1027 -1105 0
-1027 -1111 0
-1027 -1117 0
-1027 -1123 0
-1027 -1129 0
-1027 -1135 0
-1027 -1141 0
-1027 -1147 0
-1027 -1153 0
-1027 -1159 0
-1027 -1165 0
-1027 -1171 0
-1027 -1177 0
-1027 -1183 0
-1027 -1189 0
-1027 -1195 0
-1027 -1201 0
-1027 -1207 0
-1027 -1213 0
-1027 -1219 0
-1027 -1225 0
-1027 -1231 0
-1027 -1237 0
-1027 -1243 0
-1027 -1249 0
-1027 -1255 0
-1027 -1261 0
-1027 -1267 0
-1033 -1039 0
-1033 -1045 0
-1033 -1051 0
-1033 -1057 0
-1033 -1063 0
-1033 -1069 0
-1033 -1075 0
-1033 -1081 0
-1033 -1087 0
-1033 -1093 0
-1033 -1099 0
-1033 -1105 0
-1033 -1111 0
-1033 -1117 0
-1033 -1123 0
-1033 -1129 0
-1033 -1135 0
-1033 -1141 0
-1033 -1147 0
-1033 -1153 0
-1033 -1159 0
-1033 -1165 0
-1033 -1171 0
-1033 -1177 0
-1033 -1183 0
-1033 -1189 0
-1033 -1195 0
-1033 -1201 0
-1033 -1207 0
-1033 -1213 0
-1033 -1219 0
-1033 -1225 0
-1033 -1231 0
-1033 -1237 0
-1033 -1243 0
-1033 -1249 0
-1033 -1255 0
-1033 -1261 0
-1033 -1267 0
-1039 -1045 0
-1039 -1051 0
-1039 -1057 0
-1039 -1063 0
-1039 -1069 0
-1039 -1075 0
-1039 -1081 0
-1039 -1087 0
-1039 -1093 0
-1039 -1099 0
-1039 -1105 0
-1039 -1111 0
-1039 -1117 0
-1039 -1123 0
-1039 -1129 0
-1039 -1135 0
-1039 -1141 0
-1039 -1147 0
-1039 -1153 0
-1039 -1159 0
-1039 -1165 0
-1039 -1171 0
-1039 -1177 0
-1039 -1183 0
-1039 -1189 0
-1039 -1195 0
-1039 -1201 0
-1039 -1207 0
-1039 -1213 0
-1039 -1219 0
-1039 -1225 0
-1039 -1231 0
-1039 -1237 0
-1039 -1243 0
-1039 -1249 0
-1039 -1255 0
-1039 -1261 0
-1039 -1267 0
-1045 -1051 0
-1045 -1057 0
-1045 -1063 0
-1045 -1069 0
-1045 -1075 0
-1045 -1081 0
-1045 -1087 0
-1045 -1093 0
-1045 -1099 0
-1045 -1105 0
-1045 -1111 0
-1045 -1117 0
-1045 -1123 0
-1045 -1129 0
-1045 -1135 0
-1045 -1141 0
-1045 -1147 0
-1045 -1153 0
-1045 -1159 0
-1045 -1165 0
-1045 -1171 0
-1045 -1177 0
-1045 -1183 0
-1045 -1189 0
-1045 -1195 0
-1045 -1201 0
-1045 -1207 0
-1045 -1213 0
-1045 -1219 0
-1045 -1225 0
-1045 -1231 0
-1045 -1237 0
-1045 -1243 0
-1045 -1249 0
-1045 -1255 0
-1045 -1261 0
-1045 -1267 0
-1051 -1057 0
-1051 -1063 0
-1051 -1069 0
-1051 -1075 0
-1051 -1081 0
-1051 -1087 0
-1051 -1093 0
-1051 -1099 0
-1051 -1105 0
-1051 -1111 0
-1051 -1117 0
-1051 -1123 0
-1051 -1129 0
-1051 -1135 0
-1051 -1141 0
-1051 -1147 0
-1051 -1153 0
-1051 -1159 0
-1051 -1165 0
-1051 -1171 0
-1051 -1177 0
-1051 -1183 0
-1051 -1189 0
-1051 -1195 0
-1051 -1201 0
-1051 -1207 0
-1051 -1213 0
-1051 -1219 0
-1051 -1225 0
-1051 -1231 0
-1051 -1237 0
-1051 -1243 0
-1051 -1249 0
-1051 -1255 0
-1051 -1261 0
-1051 -1267 0
-1057 -1063 0
-1057 -1069 0
-1057 -1075 0
-1057 -1081 0
-1057 -1087 0
-1057 -1093 0
-1057 -1099 0
-1057 -1105 0
-1057 -1111 0
-1057 -1117 0
-1057 -1123 0
-1057 -1129 0
-1057 -1135 0
-1057 -1141 0
-1057 -1147 0
-1057 -1153 0
-1057 -1159 0
-1057 -1165 0
-1057 -1171 0
-1057 -1177 0
-1057 -1183 0
-1057 -1189 0
-1057 -1195 0
-1057 -1201 0
-1057 -1207 0
-1057 -1213 0
-1057 -1219 0
-1057 -1225 0
-1057 -1231 0
-1057 -1237 0
-1057 -1243 0
-1057 -1249 0
-1057 -1255 0
-1057 -1261 0
-1057 -1267 0
-1063 -1069 0
-1063 -1075 0
-1063 -1081 0
-1063 -1087 0
-1063 -1093 0
-1063 -1099 0
-1063 -1105 0
-1063 -1111 0
-1063 -1117 0
-1063 -1123 0
-1063 -1129 0
-1063 -1135 0
-1063 -1141 0
-1063 -1147 0
-1063 -1153 0
-1063 -1159 0
-1063 -1165 0
-1063 -1171 0
-1063 -1177 0
-1063 -1183 0
-1063 -1189 0
-1063 -1195 0
-1063 -1201 0
-1063 -1207 0
-1063 -1213 0
-1063 -1219 0
-1063 -1225 0
-1063 -1231 0
-1063 -1237 0
-1063 -1243 0
-1063 -1249 0
-1063 -1255 0
-1063 -1261 0
-1063 -1267 0
-1069 -1075 0
-1069 -1081 0
-1069 -1087 0
-1069 -1093 0
-1069 -1099 0
-1069 -1105 0
-1069 -1111 0
-1069 -1117 0
-1069 -1123 0
-1069 -1129 0
-1069 -1135 0
-1069 -1141 0
-1069 -1147 0
-1069 -1153 0
-1069 -1159 0
-1069 -1165 0
-1069 -1171 0
-1069 -1177 0
-1069 -1183 0
-1069 -1189 0
-1069 -1195 0
-1069 -1201 0
-1069 -1207 0
-1069 -1213 0
-1069 -1219 0
-1069 -1225 0
-1069 -1231 0
-1069 -1237 0
-1069 -1243 0
-1069 -1249 0
-1069 -1255 0
-1069 -1261 0
-1069 -1267 0
-1075 -1081 0
-1075 -1087 0
-1075 -1093 0
-1075 -1099 0
-1075 -1105 0
-1075 -1111 0
-1075 -1117 0
-1075 -1123 0
-1075 -1129 0
-1075 -1135 0
-1075 -1141 0
-1075 -1147 0
-1075 -1153 0
-1075 -1159 0
-1075 -1165 0
-1075 -1171 0
-1075 -1177 0
-1075 -1183 0
-1075 -1189 0
-1075 -1195 0
-1075 -1201 0
-1075 -1207 0
-1075 -1213 0
-1075 -1219 0
-1075 -1225 0
-1075 -1231 0
-1075 -1237 0
-1075 -1243 0
-1075 -1249 0
-1075 -1255 0
-1075 -1261 0
-1075 -1267 0
-1081 -1087 0
-1081 -1093 0
-1081 -1099 0
-1081 -1105 0
-1081 -1111 0
-1081 -1117 0
-1081 -1123 0
-1081 -1129 0
-1081 -1135 0
-1081 -1141 0
-1081 -1147 0
-1081 -1153 0
-1081 -1159 0
-1081 -1165 0
-1081 -1171 0
-1081 -1177 0
-1081 -1183 0
-1081 -1189 0
-1081 -1195 0
-1081 -1201 0
-1081 -1207 0
-1081 -1213 0
-1081 -1219 0
-1081 -1225 0
-1081 -1231 0
-1081 -1237 0
-1081 -1243 0
-1081 -1249 0
-1081 -1255 0
-1081 -1261 0
-1081 -1267 0
-1087 -1093 0
-1087 -1099 0
-1087 -1105 0
-1087 -1111 0
-1087 -1117 0
-1087 -1123 0
-1087 -1129 0
-1087 -1135 0
-1087 -1141 0
-1087 -1147 0
-1087 -1153 0
-1087 -1159 0
-1087 -1165 0
-1087 -1171 0
-1087 -1177 0
-1087 -1183 0
-1087 -1189 0
-1087 -1195 0
-1087 -1201 0
-1087 -1207 0
-1087 -1213 0
-1087 -1219 0
-1087 -1225 0
-1087 -1231 0
-1087 -1237 0
-1087 -1243 0
-1087 -1249 0
-1087 -1255 0
-1087 -1261 0
-1087 -1267 0
-1093 -1099 0
-1093 -1105 0
-1093 -1111 0
-1093 -1117 0
-1093 -1123 0
-1093 -1129 0
-1093 -1135 0
-1093 -1141 0
-1093 -1147 0
-1093 -1153 0
-1093 -1159 0
-1093 -1165 0
-1093 -1171 0
-1093 -1177 0
-1093 -1183 0
-1093 -1189 0
-1093 -1195 0
-1093 -1201 0
-1093 -1207 0
-1093 -1213 0
-1093 -1219 0
-1093 -1225 0
-1093 -1231 0
-1093 -1237 0
-1093 -1243 0
-1093 -1249 0
-1093 -1255 0
-1093 -1261 0
-1093 -1267 0
-1099 -1105 0
-1099 -1111 0
-1099 -1117 0
-1099 -1123 0
-1099 -1129 0
-1099 -1135 0
-1099 -1141 0
-1099 -1147 0
-1099 -1153 0
-1099 -1159 0
-1099 -1165 0
-1099 -1171 0
-1099 -1177 0
-1099 -1183 0
-1099 -1189 0
-1099 -1195 0
-1099 -1201 0
-1099 -1207 0
-1099 -1213 0
-1099 -1219 0
-1099 -1225 0
-1099 -1231 0
-1099 -1237 0
-1099 -1243 0
-1099 -1249 0
-1099 -1255 0
-1099 -1261 0
-1099 -1267 0
-1105 -1111 0
-1105 -1117 0
-1105 -1123 0
-1105 -1129 0
-1105 -1135 0
-1105 -1141 0
-1105 -1147 0
-1105 -1153 0
-1105 -1159 0
-1105 -1165 0
-1105 -1171 0
-1105 -1177 0
-1105 -1183 0
-1105 -1189 0
-1105 -1195 0
-1105 -1201 0
-1105 -1207 0
-1105 -1213 0
-1105 -1219 0
-1105 -1225 0
-1105 -1231 0
-1105 -1237 0
-1105 -1243 0
-1105 -1249 0
-1105 -1255 0
-1105 -1261 0
-1105 -1267 0
-1111 -1117 0
-1111 -1123 0
-1111 -1129 0
-1111 -1135 0
-1111 -1141 0
-1111 -1147 0
-1111 -1153 0
-1111 -1159 0
-1111 -1165 0
-1111 -1171 0
-1111 -1177 0
-1111 -1183 0
-1111 -1189 0
-1111 -1195 0
-1111 -1201 0
-1111 -1207 0
-1111 -1213 0
-1111 -1219 0
-1111 -1225 0
-1111 -1231 0
-1111 -1237 0
-1111 -1243 0
-1111 -1249 0
-1111 -1255 0
-1111 -1261 0
-1111 -1267 0
-1117 -1123 0
-1117 -1129 0
-1117 -1135 0
-1117 -1141 0
-1117 -1147 0
-1117 -1153 0
-1117 -1159 0
-1117 -1165 0
-1117 -1171 0
-1117 -1177 0
-1117 -1183 0
-1117 -1189 0
-1117 -1195 0
-1117 -1201 0
-1117 -1207 0
-1117 -1213 0
-1117 -1219 0
-1117 -1225 0
-1117 -1231 0
-1117 -1237 0
-1117 -1243 0
-1117 -1249 0
-1117 -1255 0
-1117 -1261 0
-1117 -1267 0
-1123 -1129 0
-1123 -1135 0
-1123 -1141 0
-1123 -1147 0
-1123 -1153 0
-1123 -1159 0
-1123 -1165 0
-1123 -1171 0
-1123 -1177 0
-1123 -1183 0
-1123 -1189 0
-1123 -1195 0
-1123 -1201 0
-1123 -1207 0
-1123 -1213 0
-1123 -1219 0
-1123 -1225 0
-1123 -1231 0
-1123 -1237 0
-1123 -1243 0
-1123 -1249 0
-1123 -1255 0
-1123 -1261 0
-1123 -1267 0
-1129 -1135 0
-1129 -1141 0
-1129 -1147 0
-1129 -1153 0
-1129 -1159 0
-1129 -1165 0
-1129 -1171 0
-1129 -1177 0
-1129 -1183 0
-1129 -1189 0
-1129 -1195 0
-1129 -1201 0
-1129 -1207 0
-1129 -1213 0
-1129 -1219 0
-1129 -1225 0
-1129 -1231 0
-1129 -1237 0
-1129 -1243 0
-1129 -1249 0
-1129 -1255 0
-1129 -1261 0
-1129 -1267 0
-1135 -1141 0
-1135 -1147 0
-1135 -1153 0
-1135 -1159 0
-1135 -1165 0
-1135 -1171 0
-1135 -1177 0
-1135 -1183 0
-1135 -1189 0
-1135 -1195 0
-1135 -1201 0
-1135 -1207 0
-1135 -1213 0
-1135 -1219 0
-1135 -1225 0
-1135 -1231 0
-1135 -1237 0
-1135 -1243 0
-1135 -1249 0
-1135 -1255 0
-1135 -1261 0
-1135 -1267 0
-1141 -1147 0
-1141 -1153 0
-1141 -1159 0
-1141 -1165 0
-1141 -1171 0
-1141 -1177 0
-1141 -1183 0
-1141 -1189 0
-1141 -1195 0
-1141 -1201 0
-1141 -1207 0
-1141 -1213 0
-1141 -1219 0
-1141 -1225 0
-1141 -1231 0
-1141 -1237 0
-1141 -1243 0
-1141 -1249 0
-1141 -1255 0
-1141 -1261 0
-1141 -1267 0
-1147 -1153 0
-1147 -1159 0
-1147 -1165 0
-1147 -1171 0
-1147 -1177 0
-1147 -1183 0
-1147 -1189 0
-1147 -1195 0
-1147 -1201 0
-1147 -1207 0
-1147 -1213 0
-1147 -1219 0
-1147 -1225 0
-1147 -1231 0
-1147 -1237 0
-1147 -1243 0
-1147 -1249 0
-1147 -1255 0
-1147 -1261 0
-1147 -1267 0
-1153 -1159 0
-1153 -1165 0
-1153 -1171 0
-1153 -1177 0
-1153 -1183 0
-1153 -1189 0
-1153 -1195 0
-1153 -1201 0
-1153 -1207 0
-1153 -1213 0
-1153 -1219 0
-1153 -1225 0
-1153 -1231 0
-1153 -1237 0
-1153 -1243 0
-1153 -1249 0
-1153 -1255 0
-1153 -1261 0
-1153 -1267 0
-1159 -1165 0
-1159 -1171 0
-1159 -1177 0
-1159 -1183 0
-1159 -1189 0
-1159 -1195 0
-1159 -1201 0
-1159 -1207 0
-1159 -1213 0
-1159 -1219 0
-1159 -1225 0
-1159 -1231 0
-1159 -1237 0
-1159 -1243 0
-1159 -1249 0
-1159 -1255 0
-1159 -1261 0
-1159 -1267 0
-1165 -1171 0
-1165 -1177 0
-1165 -1183 0
-1165 -1189 0
-1165 -1195 0
-1165 -1201 0
-1165 -1207 0
-1165 -1213 0
-1165 -1219 0
-1165 -1225 0
-1165 -1231 0
-1165 -1237 0
-1165 -1243 0
-1165 -1249 0
-1165 -1255 0
-1165 -1261 0
-1165 -1267 0
-1171 -1177 0
-1171 -1183 0
-1171 -1189 0
-1171 -1195 0
-1171 -1201 0
-1171 -1207 0
-1171 -1213 0
-1171 -1219 0
-1171 -1225 0
-1171 -1231 0
-1171 -1237 0
-1171 -1243 0
-1171 -1249 0
-1171 -1255 0
-1171 -1261 0
-1171 -1267 0
-1177 -1183 0
-1177 -1189 0
-1177 -1195 0
-1177 -1201 0
-1177 -1207 0
-1177 -1213 0
-1177 -1219 0
-1177 -1225 0
-1177 -1231 0
-1177 -1237 0
-1177 -1243 0
-1177 -1249 0
-1177 -1255 0
-1177 -1261 0
-1177 -1267 0
-1183 -1189 0
-1183 -1195 0
-1183 -1201 0
-1183 -1207 0
-1183 -1213 0
-1183 -1219 0
-1183 -1225 0
-1183 -1231 0
-1183 -1237 0
-1183 -1243 0
-1183 -1249 0
-1183 -1255 0
-1183 -1261 0
-1183 -1267 0
-1189 -1195 0
-1189 -1201 0
-1189 -1207 0
-1189 -1213 0
-1189 -1219 0
-1189 -1225 0
-1189 -1231 0
-1189 -1237 0
-1189 -1243 0
-1189 -1249 0
-1189 -1255 0
-1189 -1261 0
-1189 -1267 0
-1195 -1201 0
-1195 -1207 0
-1195 -1213 0
-1195 -1219 0
-1195 -1225 0
-1195 -1231 0
-1195 -1237 0
-1195 -1243 0
-1195 -1249 0
-1195 -1255 0
-1195 -1261 0
-1195 -1267 0
-1201 -1207 0
-1201 -1213 0
-1201 -1219 0
-1201 -1225 0
-1201 -1231 0
-1201 -1237 0
-1201 -1243 0
-1201 -1249 0
-1201 -1255 0
-1201 -1261 0
-1201 -1267 0
-1207 -1213 0
-1207 -1219 0
-1207 -1225 0
-1207 -1231 0
-1207 -1237 0
-1207 -1243 0
-1207 -1249 0
-1207 -1255 0
-1207 -1261 0
-1207 -1267 0
-1213 -1219 0
-1213 -1225 0
-1213 -1231 0
-1213 -1237 0
-1213 -1243 0
-1213 -1249 0
-1213 -1255 0
-1213 -1261 0
-1213 -1267 0
-1219 -1225 0
-1219 -1231 0
-1219 -1237 0
-1219 -1243 0
-1219 -1249 0
-1219 -1255 0
-1219 -1261 0
-1219 -1267 0
-1225 -1231 0
-1225 -1237 0
-1225 -1243 0
-1225 -1249 0
-1225 -1255 0
-1225 -1261 0
-1225 -1267 0
-1231 -1237 0
-1231 -1243 0
-1231 -1249 0
-1231 -1255 0
-1231 -1261 0
-1231 -1267 0
-1237 -1243 0
-1237 -1249 0
-1237 -1255 0
-1237 -1261 0
-1237 -1267 0
-1243 -1249 0
-1243 -1255 0
-1243 -1261 0
-1243 -1267 0
-1249 -1255 0
-1249 -1261 0
-1249 -1267 0
-1255 -1261 0
-1255 -1267 0
-1261 -1267 0
-769 237 0
-769 -188 0
-769 -174 7 0
-769 -174 161 0
-769 -174 -55 0
-769 -174 -62 0
-769 -174 -69 0
-769 -174 -76 0
-769 -174 -83 0
-769 -174 -48 -181 0
-769 -174 -90 -202 0
-769 -174 -125 -223 0
-769 -174 391 517 643 0
-769 -181 7 0
-769 -181 168 0
-769 -181 -55 0
-769 -181 -62 0
-769 -181 -69 0
-769 -181 -76 0
-769 -181 -83 0
-769 -181 -48 -188 0
-769 -181 -90 -209 0
-769 -181 -125 -230 0
-769 -181 398 524 650 0
-769 -6 -174 -160 0
-769 -6 -181 -167 0
-775 237 0
-775 -188 0
-775 -174 14 0
-775 -174 161 0
-775 -174 -48 0
-775 -174 -62 0
-775 -174 -69 0
-775 -174 -76 0
-775 -174 -83 0
-775 -174 -55 -181 0
-775 -174 -90 -202 0
-775 -174 -97 -202 0
-775 -174 -125 -223 0
-775 -174 -132 -223 0
-775 -174 412 538 664 0
-775 -181 14 0
-775 -181 168 0
-775 -181 -48 0
-775 -181 -62 0
-775 -181 -69 0
-775 -181 -76 0
-775 -181 -83 0
-775 -181 -55 -188 0
-775 -181 -90 -209 0
-775 -181 -97 -209 0
-775 -181 -125 -230 0
-775 -181 -132 -230 0
-775 -181 419 545 671 0
-775 -13 -174 -160 0
-775 -13 -181 -167 0
-781 237 0
-781 -188 0
-781 -174 21 0
-781 -174 161 0
-781 -174 -48 0
-781 -174 -55 0
-781 -174 -69 0
-781 -174 -76 0
-781 -174 -83 0
-781 -174 -62 -181 0
-781 -174 -97 -202 0
-781 -174 -104 -202 0
-781 -174 -125 -223 0
-781 -174 -132 -223 0
-781 -174 -139 -223 0
-781 -174 433 559 685 0
-781 -181 21 0
-781 -181 168 0
-781 -181 -48 0
-781 -181 -55 0
-781 -181 -69 0
-781 -181 -76 0
-781 -181 -83 0
-781 -181 -62 -188 0
-781 -181 -97 -209 0
-781 -181 -104 -209 0
-781 -181 -125 -230 0
-781 -181 -132 -230 0
-781 -181 -139 -230 0
-781 -181 440 566 692 0
-781 -20 -174 -160 0
-781 -20 -181 -167 0
-787 237 0
-787 -188 0
-787 -174 28 0
-787 -174 161 0
-787 -174 -48 0
-787 -174 -55 0
-787 -174 -62 0
-787 -174 -76 0
-787 -174 -83 0
-787 -174 -69 -181 0
-787 -174 -104 -202 0
-787 -174 -111 -202 0
-787 -174 -132 -223 0
-787 -174 -139 -223 0
-787 -174 -146 -223 0
-787 -174 454 580 706 0
-787 -181 28 0
-787 -181 168 0
-787 -181 -48 0
-787 -181 -55 0
-787 -181 -62 0
-787 -181 -76 0
-787 -181 -83 0
-787 -181 -69 -188 0
-787 -181 -104 -209 0
-787 -181 -111 -209 0
-787 -181 -132 -230 0
-787 -181 -139 -230 0
-787 -181 -146 -230 0
-787 -181 461 587 713 0
-787 -27 -174 -160 0
-787 -27 -181 -167 0
-793 237 0
-793 -188 0
-793 -174 35 0
-793 -174 161 0
-793 -174 -48 0
-793 -174 -55 0
-793 -174 -62 0
-793 -174 -69 0
-793 -174 -83 0
-793 -174 -76 -181 0
-793 -174 -111 -202 0
-793 -174 -118 -202 0
-793 -174 -139 -223 0
-793 -174 -146 -223 0
-793 -174 475 601 727 0
-793 -181 35 0
-793 -181 168 0
-793 -181 -48 0
-793 -181 -55 0
-793 -181 -62 0
-793 -181 -69 0
-793 -181 -83 0
-793 -181 -76 -188 0
-793 -181 -111 -209 0
-793 -181 -118 -209 0
-793 -181 -139 -230 0
-793 -181 -146 -230 0
-793 -181 482 608 734 0
-793 -34 -174 -160 0
-793 -34 -181 -167 0
-799 237 0
-799 -188 0
-799 -174 42 0
-799 -174 161 0
-799 -174 -48 0
-799 -174 -55 0
-799 -174 -62 0
-799 -174 -69 0
-799 -174 -76 0
-799 -174 -83 -181 0
-799 -174 -118 -202 0
-799 -174 -146 -223 0
-799 -174 496 622 748 0
-799 -181 42 0
-799 -181 168 0
-799 -181 -48 0
-799 -181 -55 0
-799 -181 -62 0
-799 -181 -69 0
-799 -181 -76 0
-799 -181 -83 -188 0
-799 -181 -118 -209 0
-799 -181 -146 -230 0
-799 -181 503 629 755 0
-799 -41 -174 -160 0
-799 -41 -181 -167 0
-805 237 0
-805 -209 0
-805 -195 7 0
-805 -195 161 0
-805 -195 -97 0
-805 -195 -104 0
-805 -195 -111 0
-805 -195 -118 0
-805 -195 -48 -181 0
-805 -195 -90 -202 0
-805 -195 -125 -223 0
-805 -195 391 517 643 0
-805 -202 7 0
-805 -202 168 0
-805 -202 -97 0
-805 -202 -104 0
-805 -202 -111 0
-805 -202 -118 0
-805 -202 -48 -188 0
-805 -202 -90 -209 0
-805 -202 -125 -230 0
-805 -202 398 524 650 0
-805 -6 -195 -160 0
-805 -6 -202 -167 0
-811 237 0
-811 -209 0
-811 -195 14 0
-811 -195 161 0
-811 -195 -104 0
-811 -195 -111 0
-811 -195 -118 0
-811 -195 -55 -181 0
-811 -195 -90 -202 0
-811 -195 -97 -202 0
-811 -195 -125 -223 0
-811 -195 -132 -223 0
-811 -195 412 538 664 0
-811 -202 14 0
-811 -202 168 0
-811 -202 -104 0
-811 -202 -111 0
-811 -202 -118 0
-811 -202 -55 -188 0
-811 -202 -90 -209 0
-811 -202 -97 -209 0
-811 -202 -125 -230 0
-811 -202 -132 -230 0
-811 -202 419 545 671 0
-811 -13 -195 -160 0
-811 -13 -202 -167 0
-817 237 0
-817 -209 0
-817 -195 21 0
-817 -195 161 0
-817 -195 -90 0
-817 -195 -111 0
-817 -195 -118 0
-817 -195 -62 -181 0
-817 -195 -97 -202 0
-817 -195 -104 -202 0
-817 -195 -125 -223 0
-817 -195 -132 -223 0
-817 -195 -139 -223 0
-817 -195 433 559 685 0
-817 -202 21 0
-817 -202 168 0
-817 -202 -90 0
-817 -202 -111 0
-817 -202 -118 0
-817 -202 -62 -188 0
-817 -202 -97 -209 0
-817 -202 -104 -209 0
-817 -202 -125 -230 0
-817 -202 -132 -230 0
-817 -202 -139 -230 0
-817 -202 440 566 692 0
-817 -20 -195 -160 0
-817 -20 -202 -167 0
-823 237 0
-823 -209 0
-823 -195 28 0
-823 -195 161 0
-823 -195 -90 0
-823 -195 -97 0
-823 -195 -118 0
-823 -195 -69 -181 0
-823 -195 -104 -202 0
-823 -195 -111 -202 0
-823 -195 -132 -223 0
-823 -195 -139 -223 0
-823 -195 -146 -223 0
-823 -195 454 580 706 0
-823 -202 28 0
-823 -202 168 0
-823 -202 -90 0
-823 -202 -97 0
-823 -202 -118 0
-823 -202 -69 -188 0
-823 -202 -104 -209 0
-823 -202 -111 -209 0
-823 -202 -132 -230 0
-823 -202 -139 -230 0
-823 -202 -146 -230 0
-823 -202 461 587 713 0
-823 -27 -195 -160 0
-823 -27 -202 -167 0
-829 237 0
-829 -209 0
-829 -195 35 0
-829 -195 161 0
-829 -195 -90 0
-829 -195 -97 0
-829 -195 -104 0
-829 -195 -76 -181 0
-829 -195 -111 -202 0
-829 -195 -118 -202 0
-829 -195 -139 -223 0
-829 -195 -146 -223 0
-829 -195 475 601 727 0
-829 -202 35 0
-829 -202 168 0
-829 -202 -90 0
-829 -202 -97 0
-829 -202 -104 0
-829 -202 -76 -188 0
-829 -202 -111 -209 0
-829 -202 -118 -209 0
-829 -202 -139 -230 0
-829 -202 -146 -230 0
-829 -202 482 608 734 0
-829 -34 -195 -160 0
-829 -34 -202 -167 0
-835 237 0
-835 -209 0
-835 -195 42 0
-835 -195 161 0
-835 -195 -90 0
-835 -195 -97 0
-835 -195 -104 0
-835 -195 -111 0
-835 -195 -83 -181 0
-835 -195 -118 -202 0
-835 -195 -146 -223 0
-835 -195 496 622 748 0
-835 -202 42 0
-835 -202 168 0
-835 -202 -90 0
-835 -202 -97 0
-835 -202 -104 0
-835 -202 -111 0
-835 -202 -83 -188 0
-835 -202 -118 -209 0
-835 -202 -146 -230 0
-835 -202 503 629 755 0
-835 -41 -195 -160 0
-835 -41 -202 -167 0
-841 237 0
-841 -230 0
-841 -216 7 0
-841 -216 161 0
-841 -216 -132 0
-841 -216 -139 0
-841 -216 -146 0
-841 -216 -48 -181 0
-841 -216 -90 -202 0
-841 -216 -125 -223 0
-841 -216 391 517 643 0
-841 -223 7 0
-841 -223 168 0
-841 -223 -132 0
-841 -223 -139 0
-841 -223 -146 0
-841 -223 -48 -188 0
-841 -223 -90 -209 0
-841 -223 -125 -230 0
-841 -223 398 524 650 0
-841 -6 -216 -160 0
-841 -6 -223 -167 0
-847 237 0
-847 -230 0
-847 -216 14 0
-847 -216 161 0
-847 -216 -139 0
-847 -216 -146 0
-847 -216 -55 -181 0
-847 -216 -90 -202 0
-847 -216 -97 -202 0
-847 -216 -125 -223 0
-847 -216 -132 -223 0
-847 -216 412 538 664 0
-847 -223 14 0
-847 -223 168 0
-847 -223 -139 0
-847 -223 -146 0
-847 -223 -55 -188 0
-847 -223 -90 -209 0
-847 -223 -97 -209 0
-847 -223 -125 -230 0
-847 -223 -132 -230 0
-847 -223 419 545 671 0
-847 -13 -216 -160 0
-847 -13 -223 -167 0
-853 237 0
-853 -230 0
-853 -216 21 0
-853 -216 161 0
-853 -216 -146 0
-853 -216 -62 -181 0
-853 -216 -97 -202 0
-853 -216 -104 -202 0
-853 -216 -125 -223 0
-853 -216 -132 -223 0
-853 -216 -139 -223 0
-853 -216 433 559 685 0
-853 -223 21 0
-853 -223 168 0
-853 -223 -146 0
-853 -223 -62 -188 0
-853 -223 -97 -209 0
-853 -223 -104 -209 0
-853 -223 -125 -230 0
-853 -223 -132 -230 0
-853 -223 -139 -230 0
-853 -223 440 566 692 0
-853 -20 -216 -160 0
-853 -20 -223 -167 0
-859 237 0
-859 -230 0
-859 -216 28 0
-859 -216 161 0
-859 -216 -125 0
-859 -216 -69 -181 0
-859 -216 -104 -202 0
-859 -216 -111 -202 0
-859 -216 -132 -223 0
-859 -216 -139 -223 0
-859 -216 -146 -223 0
-859 -216 454 580 706 0
-859 -223 28 0
-859 -223 168 0
-859 -223 -125 0
-859 -223 -69 -188 0
-859 -223 -104 -209 0
-859 -223 -111 -209 0
-859 -223 -132 -230 0
-859 -223 -139 -230 0
-859 -223 -146 -230 0
-859 -223 461 587 713 0
-859 -27 -216 -160 0
-859 -27 -223 -167 0
-865 237 0
-865 -230 0
-865 -216 35 0
-865 -216 161 0
-865 -216 -125 0
-865 -216 -132 0
-865 -216 -76 -181 0
-865 -216 -111 -202 0
-865 -216 -118 -202 0
-865 -216 -139 -223 0
-865 -216 -146 -223 0
-865 -216 475 601 727 0
-865 -223 35 0
-865 -223 168 0
-865 -223 -125 0
-865 -223 -132 0
-865 -223 -76 -188 0
-865 -223 -111 -209 0
-865 -223 -118 -209 0
-865 -223 -139 -230 0
-865 -223 -146 -230 0
-865 -223 482 608 734 0
-865 -34 -216 -160 0
-865 -34 -223 -167 0
-871 237 0
-871 -230 0
-871 -216 42 0
-871 -216 161 0
-871 -216 -125 0
-871 -216 -132 0
-871 -216 -139 0
-871 -216 -83 -181 0
-871 -216 -118 -202 0
-871 -216 -146 -223 0
-871 -216 496 622 748 0
-871 -223 42 0
-871 -223 168 0
-871 -223 -125 0
-871 -223 -132 0
-871 -223 -139 0
-871 -223 -83 -188 0
-871 -223 -118 -209 0
-871 -223 -146 -230 0
-871 -223 503 629 755 0
-871 -41 -216 -160 0
-871 -41 -223 -167 0
-877 237 0
-877 7 0
-877 154 0
-877 -6 -153 0
-877 -48 -174 0
-877 -90 -195 0
-877 -125 -216 0
-883 237 0
-883 14 0
-883 154 0
-883 -13 -153 0
-883 -55 -174 0
-883 -90 -195 0
-883 -97 -195 0
-883 -125 -216 0
-883 -132 -216 0
-889 237 0
-889 21 0
-889 154 0
-889 -20 -153 0
-889 -62 -174 0
-889 -97 -195 0
-889 -104 -195 0
-889 -125 -216 0
-889 -132 -216 0
-889 -139 -216 0
-895 237 0
-895 28 0
-895 154 0
-895 -27 -153 0
-895 -69 -174 0
-895 -104 -195 0
-895 -111 -195 0
-895 -132 -216 0
-895 -139 -216 0
-895 -146 -216 0
-901 237 0
-901 35 0
-901 154 0
-901 -34 -153 0
-901 -76 -174 0
-901 -111 -195 0
-901 -118 -195 0
-901 -139 -216 0
-901 -146 -216 0
-907 237 0
-907 42 0
-907 154 0
-907 -41 -153 0
-907 -83 -174 0
-907 -118 -195 0
-907 -146 -216 0
-913 244 0
-913 -167 0
-913 -153 49 0
-913 -153 182 0
-913 -153 -13 0
-913 -153 -20 0
-913 -153 -27 0
-913 -153 -34 0
-913 -153 -41 0
-913 -153 -6 -160 0
-913 -153 -90 -202 0
-913 -153 -125 -223 0
-913 -153 265 517 643 0
-913 -160 49 0
-913 -160 189 0
-913 -160 -13 0
-913 -160 -20 0
-913 -160 -27 0
-913 -160 -34 0
-913 -160 -41 0
-913 -160 -6 -167 0
-913 -160 -90 -209 0
-913 -160 -125 -230 0
-913 -160 272 524 650 0
-913 -48 -153 -181 0
-913 -48 -160 -188 0
-919 244 0
-919 -167 0
-919 -153 56 0
-919 -153 182 0
-919 -153 -6 0
-919 -153 -20 0
-919 -153 -27 0
-919 -153 -34 0
-919 -153 -41 0
-919 -153 -13 -160 0
-919 -153 -90 -202 0
-919 -153 -97 -202 0
-919 -153 -125 -223 0
-919 -153 -132 -223 0
-919 -153 286 538 664 0
-919 -160 56 0
-919 -160 189 0
-919 -160 -6 0
-919 -160 -20 0
-919 -160 -27 0
-919 -160 -34 0
-919 -160 -41 0
-919 -160 -13 -167 0
-919 -160 -90 -209 0
-919 -160 -97 -209 0
-919 -160 -125 -230 0
-919 -160 -132 -230 0
-919 -160 293 545 671 0
-919 -55 -153 -181 0
-919 -55 -160 -188 0
-925 244 0
-925 -167 0
-925 -153 63 0
-925 -153 182 0
-925 -153 -6 0
-925 -153 -13 0
-925 -153 -27 0
-925 -153 -34 0
-925 -153 -41 0
-925 -153 -20 -160 0
-925 -153 -97 -202 0
-925 -153 -104 -202 0
-925 -153 -125 -223 0
-925 -153 -132 -223 0
-925 -153 -139 -223 0
-925 -153 307 559 685 0
-925 -160 63 0
-925 -160 189 0
-925 -160 -6 0
-925 -160 -13 0
-925 -160 -27 0
-925 -160 -34 0
-925 -160 -41 0
-925 -160 -20 -167 0
-925 -160 -97 -209 0
-925 -160 -104 -209 0
-925 -160 -125 -230 0
-925 -160 -132 -230 0
-925 -160 -139 -230 0
-925 -160 314 566 692 0
-925 -62 -153 -181 0
-925 -62 -160 -188 0
-931 244 0
-931 -167 0
-931 -153 70 0
-931 -153 182 0
-931 -153 -6 0
-931 -153 -13 0
-931 -153 -20 0
-931 -153 -34 0
-931 -153 -41 0
-931 -153 -27 -160 0
-931 -153 -104 -202 0
-931 -153 -111 -202 0
-931 -153 -132 -223 0
-931 -153 -139 -223 0
-931 -153 -146 -223 0
-931 -153 328 580 706 0
-931 -160 70 0
-931 -160 189 0
-931 -160 -6 0
-931 -160 -13 0
-931 -160 -20 0
-931 -160 -34 0
-931 -160 -41 0
-931 -160 -27 -167 0
-931 -160 -104 -209 0
-931 -160 -111 -209 0
-931 -160 -132 -230 0
-931 -160 -139 -230 0
-931 -160 -146 -230 0
-931 -160 335 587 713 0
-931 -69 -153 -181 0
-931 -69 -160 -188 0
-937 244 0
-937 -167 0
-937 -153 77 0
-937 -153 182 0
-937 -153 -6 0
-937 -153 -13 0
-937 -153 -20 0
-937 -153 -27 0
-937 -153 -41 0
-937 -153 -34 -160 0
-937 -153 -111 -202 0
-937 -153 -118 -202 0
-937 -153 -139 -223 0
-937 -153 -146 -223 0
-937 -153 349 601 727 0
-937 -160 77 0
-937 -160 189 0
-937 -160 -6 0
-937 -160 -13 0
-937 -160 -20 0
-937 -160 -27 0
-937 -160 -41 0
-937 -160 -34 -167 0
-937 -160 -111 -209 0
-937 -160 -118 -209 0
-937 -160 -139 -230 0
-937 -160 -146 -230 0
-937 -160 356 608 734 0
-937 -76 -153 -181 0
-937 -76 -160 -188 0
-943 244 0
-943 -167 0
-943 -153 84 0
-943 -153 182 0
-943 -153 -6 0
-943 -153 -13 0
-943 -153 -20 0
-943 -153 -27 0
-943 -153 -34 0
-943 -153 -41 -160 0
-943 -153 -118 -202 0
-943 -153 -146 -223 0
-943 -153 370 622 748 0
-943 -160 84 0
-943 -160 189 0
-943 -160 -6 0
-943 -160 -13 0
-943 -160 -20 0
-943 -160 -27 0
-943 -160 -34 0
-943 -160 -41 -167 0
-943 -160 -118 -209 0
-943 -160 -146 -230 0
-943 -160 377 629 755 0
-943 -83 -153 -181 0
-943 -83 -160 -188 0
-949 244 0
-949 -209 0
-949 -195 49 0
-949 -195 182 0
-949 -195 -97 0
-949 -195 -104 0
-949 -195 -111 0
-949 -195 -118 0
-949 -195 -6 -160 0
-949 -195 -90 -202 0
-949 -195 -125 -223 0
-949 -195 265 517 643 0
-949 -202 49 0
-949 -202 189 0
-949 -202 -97 0
-949 -202 -104 0
-949 -202 -111 0
-949 -202 -118 0
-949 -202 -6 -167 0
-949 -202 -90 -209 0
-949 -202 -125 -230 0
-949 -202 272 524 650 0
-949 -48 -195 -181 0
-949 -48 -202 -188 0
-955 244 0
-955 -209 0
-955 -195 56 0
-955 -195 182 0
-955 -195 -104 0
-955 -195 -111 0
-955 -195 -118 0
-955 -195 -13 -160 0
-955 -195 -90 -202 0
-955 -195 -97 -202 0
-955 -195 -125 -223 0
-955 -195 -132 -223 0
-955 -195 286 538 664 0
-955 -202 56 0
-955 -202 189 0
-955 -202 -104 0
-955 -202 -111 0
-955 -202 -118 0
-955 -202 -13 -167 0
-955 -202 -90 -209 0
-955 -202 -97 -209 0
-955 -202 -125 -230 0
-955 -202 -132 -230 0
-955 -202 293 545 671 0
-955 -55 -195 -181 0
-955 -55 -202 -188 0
-961 244 0
-961 -209 0
-961 -195 63 0
-961 -195 182 0
-961 -195 -90 0
-961 -195 -111 0
-961 -195 -118 0
-961 -195 -20 -160 0
-961 -195 -97 -202 0
-961 -195 -104 -202 0
-961 -195 -125 -223 0
-961 -195 -132 -223 0
-961 -195 -139 -223 0
-961 -195 307 559 685 0
-961 -202 63 0
-961 -202 189 0
-961 -202 -90 0
-961 -202 -111 0
-961 -202 -118 0
-961 -202 -20 -167 0
-961 -202 -97 -209 0
-961 -202 -104 -209 0
-961 -202 -125 -230 0
-961 -202 -132 -230 0
-961 -202 -139 -230 0
-961 -202 314 566 692 0
-961 -62 -195 -181 0
-961 -62 -202 -188 0
-967 244 0
-967 -209 0
-967 -195 70 0
-967 -195 182 0
-967 -195 -90 0
-967 -195 -97 0
-967 -195 -118 0
-967 -195 -27 -160 0
-967 -195 -104 -202 0
-967 -195 -111 -202 0
-967 -195 -132 -223 0
-967 -195 -139 -223 0
-967 -195 -146 -223 0
-967 -195 328 580 706 0
-967 -202 70 0
-967 -202 189 0
-967 -202 -90 0
-967 -202 -97 0
-967 -202 -118 0
-967 -202 -27 -167 0
-967 -202 -104 -209 0
-967 -202 -111 -209 0
-967 -202 -132 -230 0
-967 -202 -139 -230 0
-967 -202 -146 -230 0
-967 -202 335 587 713 0
-967 -69 -195 -181 0
-967 -69 -202 -188 0
-973 244 0
-973 -209 0
-973 -195 77 0
-973 -195 182 0
-973 -195 -90 0
-973 -195 -97 0
-973 -195 -104 0
-973 -195 -34 -160 0
-973 -195 -111 -202 0
-973 -195 -118 -202 0
-973 -195 -139 -223 0
-973 -195 -146 -223 0
-973 -195 349 601 727 0
-973 -202 77 0
-973 -202 189 0
-973 -202 -90 0
-973 -202 -97 0
-973 -202 -104 0
-973 -202 -34 -167 0
-973 -202 -111 -209 0
-973 -202 -118 -209 0
-973 -202 -139 -230 0
-973 -202 -146 -230 0
-973 -202 356 608 734 0
-973 -76 -195 -181 0
-973 -76 -202 -188 0
-979 244 0
-979 -209 0
-979 -195 84 0
-979 -195 182 0
-979 -195 -90 0
-979 -195 -97 0
-979 -195 -104 0
-979 -195 -111 0
-979 -195 -41 -160 0
-979 -195 -118 -202 0
-979 -195 -146 -223 0
-979 -195 370 622 748 0
-979 -202 84 0
-979 -202 189 0
-979 -202 -90 0
-979 -202 -97 0
-979 -202 -104 0
-979 -202 -111 0
-979 -202 -41 -167 0
-979 -202 -118 -209 0
-979 -202 -146 -230 0
-979 -202 377 629 755 0
-979 -83 -195 -181 0
-979 -83 -202 -188 0
-985 244 0
-985 -230 0
-985 -216 49 0
-985 -216 182 0
-985 -216 -132 0
-985 -216 -139 0
-985 -216 -146 0
-985 -216 -6 -160 0
-985 -216 -90 -202 0
-985 -216 -125 -223 0
-985 -216 265 517 643 0
-985 -223 49 0
-985 -223 189 0
-985 -223 -132 0
-985 -223 -139 0
-985 -223 -146 0
-985 -223 -6 -167 0
-985 -223 -90 -209 0
-985 -223 -125 -230 0
-985 -223 272 524 650 0
-985 -48 -216 -181 0
-985 -48 -223 -188 0
-991 244 0
-991 -230 0
-991 -216 56 0
-991 -216 182 0
-991 -216 -139 0
-991 -216 -146 0
-991 -216 -13 -160 0
-991 -216 -90 -202 0
-991 -216 -97 -202 0
-991 -216 -125 -223 0
-991 -216 -132 -223 0
-991 -216 286 538 664 0
-991 -223 56 0
-991 -223 189 0
-991 -223 -139 0
-991 -223 -146 0
-991 -223 -13 -167 0
-991 -223 -90 -209 0
-991 -223 -97 -209 0
-991 -223 -125 -230 0
-991 -223 -132 -230 0
-991 -223 293 545 671 0
-991 -55 -216 -181 0
-991 -55 -223 -188 0
-997 244 0
-997 -230 0
-997 -216 63 0
-997 -216 182 0
-997 -216 -146 0
-997 -216 -20 -160 0
-997 -216 -97 -202 0
-997 -216 -104 -202 0
-997 -216 -125 -223 0
-997 -216 -132 -223 0
-997 -216 -139 -223 0
-997 -216 307 559 685 0
-997 -223 63 0
-997 -223 189 0
-997 -223 -146 0
-997 -223 -20 -167 0
-997 -223 -97 -209 0
-997 -223 -104 -209 0
-997 -223 -125 -230 0
-997 -223 -132 -230 0
-997 -223 -139 -230 0
-997 -223 314 566 692 0
-997 -62 -216 -181 0
-997 -62 -223 -188 0
-1003 244 0
-1003 -230 0
-1003 -216 70 0
-1003 -216 182 0
-1003 -216 -125 0
-1003 -216 -27 -160 0
-1003 -216 -104 -202 0
-1003 -216 -111 -202 0
-1003 -216 -132 -223 0
-1003 -216 -139 -223 0
-1003 -216 -146 -223 0
-1003 -216 328 580 706 0
-1003 -223 70 0
-1003 -223 189 0
-1003 -223 -125 0
-1003 -223 -27 -167 0
-1003 -223 -104 -209 0
-1003 -223 -111 -209 0
-1003 -223 -132 -230 0
-1003 -223 -139 -230 0
-1003 -223 -146 -230 0
-1003 -223 335 587 713 0
-1003 -69 -216 -181 0
-1003 -69 -223 -188 0
-1009 244 0
-1009 -230 0
-1009 -216 77 0
-1009 -216 182 0
-1009 -216 -125 0
-1009 -216 -132 0
-1009 -216 -34 -160 0
-1009 -216 -111 -202 0
-1009 -216 -118 -202 0
-1009 -216 -139 -223 0
-1009 -216 -146 -223 0
-1009 -216 349 601 727 0
-1009 -223 77 0
-1009 -223 189 0
-1009 -223 -125 0
-1009 -223 -132 0
-1009 -223 -34 -167 0
-1009 -223 -111 -209 0
-1009 -223 -118 -209 0
-1009 -223 -139 -230 0
-1009 -223 -146 -230 0
-1009 -223 356 608 734 0
-1009 -76 -216 -181 0
-1009 -76 -223 -188 0
-1015 244 0
-1015 -230 0
-1015 -216 84 0
-1015 -216 182 0
-1015 -216 -125 0
-1015 -216 -132 0
-1015 -216 -139 0
-1015 -216 -41 -160 0
-1015 -216 -118 -202 0
-1015 -216 -146 -223 0
-1015 -216 370 622 748 0
-1015 -223 84 0
-1015 -223 189 0
-1015 -223 -125 0
-1015 -223 -132 0
-1015 -223 -139 0
-1015 -223 -41 -167 0
-1015 -223 -118 -209 0
-1015 -223 -146 -230 0
-1015 -223 377 629 755 0
-1015 -83 -216 -181 0
-1015 -83 -223 -188 0
-1021 244 0
-1021 49 0
-1021 175 0
-1021 -48 -174 0
-1021 -6 -153 0
-1021 -90 -195 0
-1021 -125 -216 0
-1027 244 0
-1027 56 0
-1027 175 0
-1027 -55 -174 0
-1027 -13 -153 0
-1027 -90 -195 0
-1027 -97 -195 0
-1027 -125 -216 0
-1027 -132 -216 0
-1033 244 0
-1033 63 0
-1033 175 0
-1033 -62 -174 0
-1033 -20 -153 0
-1033 -97 -195 0
-1033 -104 -195 0
-1033 -125 -216 0
-1033 -132 -216 0
-1033 -139 -216 0
-1039 244 0
-1039 70 0
-1039 175 0
-1039 -69 -174 0
-1039 -27 -153 0
-1039 -104 -195 0
-1039 -111 -195 0
-1039 -132 -216 0
-1039 -139 -216 0
-1039 -146 -216 0
-1045 244 0
-1045 77 0
-1045 175 0
-1045 -76 -174 0
-1045 -34 -153 0
-1045 -111 -195 0
-1045 -118 -195 0
-1045 -139 -216 0
-1045 -146 -216 0
-1051 244 0
-1051 84 0
-1051 175 0
-1051 -83 -174 0
-1051 -41 -153 0
-1051 -118 -195 0
-1051 -146 -216 0
-1057 251 0
-1057 -167 0
-1057 -153 91 0
-1057 -153 203 0
-1057 -153 -20 0
-1057 -153 -27 0
-1057 -153 -34 0
-1057 -153 -41 0
-1057 -153 -6 -160 0
-1057 -153 -13 -160 0
-1057 -153 -48 -181 0
-1057 -153 -55 -181 0
-1057 -153 -125 -223 0
-1057 -153 -132 -223 0
-1057 -153 265 391 643 286 412 664 0
-1057 -160 91 0
-1057 -160 210 0
-1057 -160 -20 0
-1057 -160 -27 0
-1057 -160 -34 0
-1057 -160 -41 0
-1057 -160 -6 -167 0
-1057 -160 -13 -167 0
-1057 -160 -48 -188 0
-1057 -160 -55 -188 0
-1057 -160 -125 -230 0
-1057 -160 -132 -230 0
-1057 -160 272 398 650 293 419 671 0
-1057 -90 -153 -202 0
-1057 -90 -160 -209 0
-1063 251 0
-1063 -167 0
-1063 -153 98 0
-1063 -153 203 0
-1063 -153 -6 0
-1063 -153 -27 0
-1063 -153 -34 0
-1063 -153 -41 0
-1063 -153 -13 -160 0
-1063 -153 -20 -160 0
-1063 -153 -55 -181 0
-1063 -153 -62 -181 0
-1063 -153 -125 -223 0
-1063 -153 -132 -223 0
-1063 -153 -139 -223 0
-1063 -153 286 412 664 307 433 685 0
-1063 -160 98 0
-1063 -160 210 0
-1063 -160 -6 0
-1063 -160 -27 0
-1063 -160 -34 0
-1063 -160 -41 0
-1063 -160 -13 -167 0
-1063 -160 -20 -167 0
-1063 -160 -55 -188 0
-1063 -160 -62 -188 0
-1063 -160 -125 -230 0
-1063 -160 -132 -230 0
-1063 -160 -139 -230 0
-1063 -160 293 419 671 314 440 692 0
-1063 -97 -153 -202 0
-1063 -97 -160 -209 0
-1069 251 0
-1069 -167 0
-1069 -153 105 0
-1069 -153 203 0
-1069 -153 -6 0
-1069 -153 -13 0
-1069 -153 -34 0
-1069 -153 -41 0
-1069 -153 -20 -160 0
-1069 -153 -27 -160 0
-1069 -153 -62 -181 0
-1069 -153 -69 -181 0
-1069 -153 -125 -223 0
-1069 -153 -132 -223 0
-1069 -153 -139 -223 0
-1069 -153 -146 -223 0
-1069 -153 307 433 685 328 454 706 0
-1069 -160 105 0
-1069 -160 210 0
-1069 -160 -6 0
-1069 -160 -13 0
-1069 -160 -34 0
-1069 -160 -41 0
-1069 -160 -20 -167 0
-1069 -160 -27 -167 0
-1069 -160 -62 -188 0
-1069 -160 -69 -188 0
-1069 -160 -125 -230 0
-1069 -160 -132 -230 0
-1069 -160 -139 -230 0
-1069 -160 -146 -230 0
-1069 -160 314 440 692 335 461 713 0
-1069 -104 -153 -202 0
-1069 -104 -160 -209 0
-1075 251 0
-1075 -167 0
-1075 -153 112 0
-1075 -153 203 0
-1075 -153 -6 0
-1075 -153 -13 0
-1075 -153 -20 0
-1075 -153 -41 0
-1075 -153 -27 -160 0
-1075 -153 -34 -160 0
-1075 -153 -69 -181 0
-1075 -153 -76 -181 0
-1075 -153 -132 -223 0
-1075 -153 -139 -223 0
-1075 -153 -146 -223 0
-1075 -153 328 454 706 349 475 727 0
-1075 -160 112 0
-1075 -160 210 0
-1075 -160 -6 0
-1075 -160 -13 0
-1075 -160 -20 0
-1075 -160 -41 0
-1075 -160 -27 -167 0
-1075 -160 -34 -167 0
-1075 -160 -69 -188 0
-1075 -160 -76 -188 0
-1075 -160 -132 -230 0
-1075 -160 -139 -230 0
-1075 -160 -146 -230 0
-1075 -160 335 461 713 356 482 734 0
-1075 -111 -153 -202 0
-1075 -111 -160 -209 0
-1081 251 0
-1081 -167 0
-1081 -153 119 0
-1081 -153 203 0
-1081 -153 -6 0
-1081 -153 -13 0
-1081 -153 -20 0
-1081 -153 -27 0
-1081 -153 -34 -160 0
-1081 -153 -41 -160 0
-1081 -153 -76 -181 0
-1081 -153 -83 -181 0
-1081 -153 -139 -223 0
-1081 -153 -146 -223 0
-1081 -153 349 475 727 370 496 748 0
-1081 -160 119 0
-1081 -160 210 0
-1081 -160 -6 0
-1081 -160 -13 0
-1081 -160 -20 0
-1081 -160 -27 0
-1081 -160 -34 -167 0
-1081 -160 -41 -167 0
-1081 -160 -76 -188 0
-1081 -160 -83 -188 0
-1081 -160 -139 -230 0
-1081 -160 -146 -230 0
-1081 -160 356 482 734 377 503 755 0
-1081 -118 -153 -202 0
-1081 -118 -160 -209 0
-1087 251 0
-1087 -188 0
-1087 -174 91 0
-1087 -174 203 0
-1087 -174 -62 0
-1087 -174 -69 0
-1087 -174 -76 0
-1087 -174 -83 0
-1087 -174 -6 -160 0
-1087 -174 -13 -160 0
-1087 -174 -48 -181 0
-1087 -174 -55 -181 0
-1087 -174 -125 -223 0
-1087 -174 -132 -223 0
-1087 -174 265 391 643 286 412 664 0
-1087 -181 91 0
-1087 -181 210 0
-1087 -181 -62 0
-1087 -181 -69 0
-1087 -181 -76 0
-1087 -181 -83 0
-1087 -181 -6 -167 0
-1087 -181 -13 -167 0
-1087 -181 -48 -188 0
-1087 -181 -55 -188 0
-1087 -181 -125 -230 0
-1087 -181 -132 -230 0
-1087 -181 272 398 650 293 419 671 0
-1087 -90 -174 -202 0
-1087 -90 -181 -209 0
-1093 251 0
-1093 -188 0
-1093 -174 98 0
-1093 -174 203 0
-1093 -174 -48 0
-1093 -174 -69 0
-1093 -174 -76 0
-1093 -174 -83 0
-1093 -174 -13 -160 0
-1093 -174 -20 -160 0
-1093 -174 -55 -181 0
-1093 -174 -62 -181 0
-1093 -174 -125 -223 0
-1093 -174 -132 -223 0
-1093 -174 -139 -223 0
-1093 -174 286 412 664 307 433 685 0
-1093 -181 98 0
-1093 -181 210 0
-1093 -181 -48 0
-1093 -181 -69 0
-1093 -181 -76 0
-1093 -181 -83 0
-1093 -181 -13 -167 0
-1093 -181 -20 -167 0
-1093 -181 -55 -188 0
-1093 -181 -62 -188 0
-1093 -181 -125 -230 0
-1093 -181 -132 -230 0
-1093 -181 -139 -230 0
-1093 -181 293 419 671 314 440 692 0
-1093 -97 -174 -202 0
-1093 -97 -181 -209 0
-1099 251 0
-1099 -188 0
-1099 -174 105 0
-1099 -174 203 0
-1099 -174 -48 0
-1099 -174 -55 0
-1099 -174 -76 0
-1099 -174 -83 0
-1099 -174 -20 -160 0
-1099 -174 -27 -160 0
-1099 -174 -62 -181 0
-1099 -174 -69 -181 0
-1099 -174 -125 -223 0
-1099 -174 -132 -223 0
-1099 -174 -139 -223 0
-1099 -174 -146 -223 0
-1099 -174 307 433 685 328 454 706 0
-1099 -181 105 0
-1099 -181 210 0
-1099 -181 -48 0
-1099 -181 -55 0
-1099 -181 -76 0
-1099 -181 -83 0
-1099 -181 -20 -167 0
-1099 -181 -27 -167 0
-1099 -181 -62 -188 0
-1099 -181 -69 -188 0
-1099 -181 -125 -230 0
-1099 -181 -132 -230 0
-1099 -181 -139 -230 0
-1099 -181 -146 -230 0
-1099 -181 314 440 692 335 461 713 0
-1099 -104 -174 -202 0
-1099 -104 -181 -209 0
-1105 251 0
-1105 -188 0
-1105 -174 112 0
-1105 -174 203 0
-1105 -174 -48 0
-1105 -174 -55 0
-1105 -174 -62 0
-1105 -174 -83 0
-1105 -174 -27 -160 0
-1105 -174 -34 -160 0
-1105 -174 -69 -181 0
-1105 -174 -76 -181 0
-1105 -174 -132 -223 0
-1105 -174 -139 -223 0
-1105 -174 -146 -223 0
-1105 -174 328 454 706 349 475 727 0
-1105 -181 112 0
-1105 -181 210 0
-1105 -181 -48 0
-1105 -181 -55 0
-1105 -181 -62 0
-1105 -181 -83 0
-1105 -181 -27 -167 0
-1105 -181 -34 -167 0
-1105 -181 -69 -188 0
-1105 -181 -76 -188 0
-1105 -181 -132 -230 0
-1105 -181 -139 -230 0
-1105 -181 -146 -230 0
-1105 -181 335 461 713 356 482 734 0
-1105 -111 -174 -202 0
-1105 -111 -181 -209 0
-1111 251 0
-1111 -188 0
-1111 -174 119 0
-1111 -174 203 0
-1111 -174 -48 0
-1111 -174 -55 0
-1111 -174 -62 0
-1111 -174 -69 0
-1111 -174 -34 -160 0
-1111 -174 -41 -160 0
-1111 -174 -76 -181 0
-1111 -174 -83 -181 0
-1111 -174 -139 -223 0
-1111 -174 -146 -223 0
-1111 -174 349 475 727 370 496 748 0
-1111 -181 119 0
-1111 -181 210 0
-1111 -181 -48 0
-1111 -181 -55 0
-1111 -181 -62 0
-1111 -181 -69 0
-1111 -181 -34 -167 0
-1111 -181 -41 -167 0
-1111 -181 -76 -188 0
-1111 -181 -83 -188 0
-1111 -181 -139 -230 0
-1111 -181 -146 -230 0
-1111 -181 356 482 734 377 503 755 0
-1111 -118 -174 -202 0
-1111 -118 -181 -209 0
-1117 251 0
-1117 -230 0
-1117 -216 91 0
-1117 -216 203 0
-1117 -216 -139 0
-1117 -216 -146 0
-1117 -216 -6 -160 0
-1117 -216 -13 -160 0
-1117 -216 -48 -181 0
-1117 -216 -55 -181 0
-1117 -216 -125 -223 0
-1117 -216 -132 -223 0
-1117 -216 265 391 643 286 412 664 0
-1117 -223 91 0
-1117 -223 210 0
-1117 -223 -139 0
-1117 -223 -146 0
-1117 -223 -6 -167 0
-1117 -223 -13 -167 0
-1117 -223 -48 -188 0
-1117 -223 -55 -188 0
-1117 -223 -125 -230 0
-1117 -223 -132 -230 0
-1117 -223 272 398 650 293 419 671 0
-1117 -90 -216 -202 0
-1117 -90 -223 -209 0
-1123 251 0
-1123 -230 0
-1123 -216 98 0
-1123 -216 203 0
-1123 -216 -146 0
-1123 -216 -13 -160 0
-1123 -216 -20 -160 0
-1123 -216 -55 -181 0
-1123 -216 -62 -181 0
-1123 -216 -125 -223 0
-1123 -216 -132 -223 0
-1123 -216 -139 -223 0
-1123 -216 286 412 664 307 433 685 0
-1123 -223 98 0
-1123 -223 210 0
-1123 -223 -146 0
-1123 -223 -13 -167 0
-1123 -223 -20 -167 0
-1123 -223 -55 -188 0
-1123 -223 -62 -188 0
-1123 -223 -125 -230 0
-1123 -223 -132 -230 0
-1123 -223 -139 -230 0
-1123 -223 293 419 671 314 440 692 0
-1123 -97 -216 -202 0
-1123 -97 -223 -209 0
-1129 251 0
-1129 -230 0
-1129 -216 105 0
-1129 -216 203 0
-1129 -216 -20 -160 0
-1129 -216 -27 -160 0
-1129 -216 -62 -181 0
-1129 -216 -69 -181 0
-1129 -216 -125 -223 0
-1129 -216 -132 -223 0
-1129 -216 -139 -223 0
-1129 -216 -146 -223 0
-1129 -216 307 433 685 328 454 706 0
-1129 -223 105 0
-1129 -223 210 0
-1129 -223 -20 -167 0
-1129 -223 -27 -167 0
-1129 -223 -62 -188 0
-1129 -223 -69 -188 0
-1129 -223 -125 -230 0
-1129 -223 -132 -230 0
-1129 -223 -139 -230 0
-1129 -223 -146 -230 0
-1129 -223 314 440 692 335 461 713 0
-1129 -104 -216 -202 0
-1129 -104 -223 -209 0
-1135 251 0
-1135 -230 0
-1135 -216 112 0
-1135 -216 203 0
-1135 -216 -125 0
-1135 -216 -27 -160 0
-1135 -216 -34 -160 0
-1135 -216 -69 -181 0
-1135 -216 -76 -181 0
-1135 -216 -132 -223 0
-1135 -216 -139 -223 0
-1135 -216 -146 -223 0
-1135 -216 328 454 706 349 475 727 0
-1135 -223 112 0
-1135 -223 210 0
-1135 -223 -125 0
-1135 -223 -27 -167 0
-1135 -223 -34 -167 0
-1135 -223 -69 -188 0
-1135 -223 -76 -188 0
-1135 -223 -132 -230 0
-1135 -223 -139 -230 0
-1135 -223 -146 -230 0
-1135 -223 335 461 713 356 482 734 0
-1135 -111 -216 -202 0
-1135 -111 -223 -209 0
-1141 251 0
-1141 -230 0
-1141 -216 119 0
-1141 -216 203 0
-1141 -216 -125 0
-1141 -216 -132 0
-1141 -216 -34 -160 0
-1141 -216 -41 -160 0
-1141 -216 -76 -181 0
-1141 -216 -83 -181 0
-1141 -216 -139 -223 0
-1141 -216 -146 -223 0
-1141 -216 349 475 727 370 496 748 0
-1141 -223 119 0
-1141 -223 210 0
-1141 -223 -125 0
-1141 -223 -132 0
-1141 -223 -34 -167 0
-1141 -223 -41 -167 0
-1141 -223 -76 -188 0
-1141 -223 -83 -188 0
-1141 -223 -139 -230 0
-1141 -223 -146 -230 0
-1141 -223 356 482 734 377 503 755 0
-1141 -118 -216 -202 0
-1141 -118 -223 -209 0
-1147 251 0
-1147 91 0
-1147 196 0
-1147 -90 -195 0
-1147 -6 -153 0
-1147 -13 -153 0
-1147 -48 -174 0
-1147 -55 -174 0
-1147 -125 -216 0
-1147 -132 -216 0
-1153 251 0
-1153 98 0
-1153 196 0
-1153 -97 -195 0
-1153 -13 -153 0
-1153 -20 -153 0
-1153 -55 -174 0
-1153 -62 -174 0
-1153 -125 -216 0
-1153 -132 -216 0
-1153 -139 -216 0
-1159 251 0
-1159 105 0
-1159 196 0
-1159 -104 -195 0
-1159 -20 -153 0
-1159 -27 -153 0
-1159 -62 -174 0
-1159 -69 -174 0
-1159 -125 -216 0
-1159 -132 -216 0
-1159 -139 -216 0
-1159 -146 -216 0
-1165 251 0
-1165 112 0
-1165 196 0
-1165 -111 -195 0
-1165 -27 -153 0
-1165 -34 -153 0
-1165 -69 -174 0
-1165 -76 -174 0
-1165 -132 -216 0
-1165 -139 -216 0
-1165 -146 -216 0
-1171 251 0
-1171 119 0
-1171 196 0
-1171 -118 -195 0
-1171 -34 -153 0
-1171 -41 -153 0
-1171 -76 -174 0
-1171 -83 -174 0
-1171 -139 -216 0
-1171 -146 -216 0
-1177 258 0
-1177 -167 0
-1177 -153 126 0
-1177 -153 224 0
-1177 -153 -27 0
-1177 -153 -34 0
-1177 -153 -41 0
-1177 -153 -6 -160 0
-1177 -153 -13 -160 0
-1177 -153 -20 -160 0
-1177 -153 -48 -181 0
-1177 -153 -55 -181 0
-1177 -153 -62 -181 0
-1177 -153 -90 -202 0
-1177 -153 -97 -202 0
-1177 -153 -104 -202 0
-1177 -153 265 391 517 286 412 538 0
-1177 -153 265 391 517 307 433 559 0
-1177 -153 286 412 538 307 433 559 0
-1177 -160 126 0
-1177 -160 231 0
-1177 -160 -27 0
-1177 -160 -34 0
-1177 -160 -41 0
-1177 -160 -6 -167 0
-1177 -160 -13 -167 0
-1177 -160 -20 -167 0
-1177 -160 -48 -188 0
-1177 -160 -55 -188 0
-1177 -160 -62 -188 0
-1177 -160 -90 -209 0
-1177 -160 -97 -209 0
-1177 -160 -104 -209 0
-1177 -160 272 398 524 293 419 545 0
-1177 -160 272 398 524 314 440 566 0
-1177 -160 293 419 545 314 440 566 0
-1177 -125 -153 -223 0
-1177 -125 -160 -230 0
-1183 258 0
-1183 -167 0
-1183 -153 133 0
-1183 -153 224 0
-1183 -153 -6 0
-1183 -153 -34 0
-1183 -153 -41 0
-1183 -153 -13 -160 0
-1183 -153 -20 -160 0
-1183 -153 -27 -160 0
-1183 -153 -55 -181 0
-1183 -153 -62 -181 0
-1183 -153 -69 -181 0
-1183 -153 -90 -202 0
-1183 -153 -97 -202 0
-1183 -153 -104 -202 0
-1183 -153 -111 -202 0
-1183 -153 286 412 538 307 433 559 0
-1183 -153 286 412 538 328 454 580 0
-1183 -153 307 433 559 328 454 580 0
-1183 -160 133 0
-1183 -160 231 0
-1183 -160 -6 0
-1183 -160 -34 0
-1183 -160 -41 0
-1183 -160 -13 -167 0
-1183 -160 -20 -167 0
-1183 -160 -27 -167 0
-1183 -160 -55 -188 0
-1183 -160 -62 -188 0
-1183 -160 -69 -188 0
-1183 -160 -90 -209 0
-1183 -160 -97 -209 0
-1183 -160 -104 -209 0
-1183 -160 -111 -209 0
-1183 -160 293 419 545 314 440 566 0
-1183 -160 293 419 545 335 461 587 0
-1183 -160 314 440 566 335 461 587 0
-1183 -132 -153 -223 0
-1183 -132 -160 -230 0
-1189 258 0
-1189 -167 0
-1189 -153 140 0
-1189 -153 224 0
-1189 -153 -6 0
-1189 -153 -13 0
-1189 -153 -41 0
-1189 -153 -20 -160 0
-1189 -153 -27 -160 0
-1189 -153 -34 -160 0
-1189 -153 -62 -181 0
-1189 -153 -69 -181 0
-1189 -153 -76 -181 0
-1189 -153 -97 -202 0
-1189 -153 -104 -202 0
-1189 -153 -111 -202 0
-1189 -153 -118 -202 0
-1189 -153 307 433 559 328 454 580 0
-1189 -153 307 433 559 349 475 601 0
-1189 -153 328 454 580 349 475 601 0
-1189 -160 140 0
-1189 -160 231 0
-1189 -160 -6 0
-1189 -160 -13 0
-1189 -160 -41 0
-1189 -160 -20 -167 0
-1189 -160 -27 -167 0
-1189 -160 -34 -167 0
-1189 -160 -62 -188 0
-1189 -160 -69 -188 0
-1189 -160 -76 -188 0
-1189 -160 -97 -209 0
-1189 -160 -104 -209 0
-1189 -160 -111 -209 0
-1189 -160 -118 -209 0
-1189 -160 314 440 566 335 461 587 0
-1189 -160 314 440 566 356 482 608 0
-1189 -160 335 461 587 356 482 608 0
-1189 -139 -153 -223 0
-1189 -139 -160 -230 0
-1195 258 0
-1195 -167 0
-1195 -153 147 0
-1195 -153 224 0
-1195 -153 -6 0
-1195 -153 -13 0
-1195 -153 -20 0
-1195 -153 -27 -160 0
-1195 -153 -34 -160 0
-1195 -153 -41 -160 0
-1195 -153 -69 -181 0
-1195 -153 -76 -181 0
-1195 -153 -83 -181 0
-1195 -153 -104 -202 0
-1195 -153 -111 -202 0
-1195 -153 -118 -202 0
-1195 -153 328 454 580 349 475 601 0
-1195 -153 328 454 580 370 496 622 0
-1195 -153 349 475 601 370 496 622 0
-1195 -160 147 0
-1195 -160 231 0
-1195 -160 -6 0
-1195 -160 -13 0
-1195 -160 -20 0
-1195 -160 -27 -167 0
-1195 -160 -34 -167 0
-1195 -160 -41 -167 0
-1195 -160 -69 -188 0
-1195 -160 -76 -188 0
-1195 -160 -83 -188 0
-1195 -160 -104 -209 0
-1195 -160 -111 -209 0
-1195 -160 -118 -209 0
-1195 -160 335 461 587 356 482 608 0
-1195 -160 335 461 587 377 503 629 0
-1195 -160 356 482 608 377 503 629 0
-1195 -146 -153 -223 0
-1195 -146 -160 -230 0
-1201 258 0
-1201 -188 0
-1201 -174 126 0
-1201 -174 224 0
-1201 -174 -69 0
-1201 -174 -76 0
-1201 -174 -83 0
-1201 -174 -6 -160 0
-1201 -174 -13 -160 0
-1201 -174 -20 -160 0
-1201 -174 -48 -181 0
-1201 -174 -55 -181 0
-1201 -174 -62 -181 0
-1201 -174 -90 -202 0
-1201 -174 -97 -202 0
-1201 -174 -104 -202 0
-1201 -174 265 391 517 286 412 538 0
-1201 -174 265 391 517 307 433 559 0
-1201 -174 286 412 538 307 433 559 0
-1201 -181 126 0
-1201 -181 231 0
-1201 -181 -69 0
-1201 -181 -76 0
-1201 -181 -83 0
-1201 -181 -6 -167 0
-1201 -181 -13 -167 0
-1201 -181 -20 -167 0
-1201 -181 -48 -188 0
-1201 -181 -55 -188 0
-1201 -181 -62 -188 0
-1201 -181 -90 -209 0
-1201 -181 -97 -209 0
-1201 -181 -104 -209 0
-1201 -181 272 398 524 293 419 545 0
-1201 -181 272 398 524 314 440 566 0
-1201 -181 293 419 545 314 440 566 0
-1201 -125 -174 -223 0
-1201 -125 -181 -230 0
-1207 258 0
-1207 -188 0
-1207 -174 133 0
-1207 -174 224 0
-1207 -174 -48 0
-1207 -174 -76 0
-1207 -174 -83 0
-1207 -174 -13 -160 0
-1207 -174 -20 -160 0
-1207 -174 -27 -160 0
-1207 -174 -55 -181 0
-1207 -174 -62 -181 0
-1207 -174 -69 -181 0
-1207 -174 -90 -202 0
-1207 -174 -97 -202 0
-1207 -174 -104 -202 0
-1207 -174 -111 -202 0
-1207 -174 286 412 538 307 433 559 0
-1207 -174 286 412 538 328 454 580 0
-1207 -174 307 433 559 328 454 580 0
-1207 -181 133 0
-1207 -181 231 0
-1207 -181 -48 0
-1207 -181 -76 0
-1207 -181 -83 0
-1207 -181 -13 -167 0
-1207 -181 -20 -167 0
-1207 -181 -27 -167 0
-1207 -181 -55 -188 0
-1207 -181 -62 -188 0
-1207 -181 -69 -188 0
-1207 -181 -90 -209 0
-1207 -181 -97 -209 0
-1207 -181 -104 -209 0
-1207 -181 -111 -209 0
-1207 -181 293 419 545 314 440 566 0
-1207 -181 293 419 545 335 461 587 0
-1207 -181 314 440 566 335 461 587 0
-1207 -132 -174 -223 0
-1207 -132 -181 -230 0
-1213 258 0
-1213 -188 0
-1213 -174 140 0
-1213 -174 224 0
-1213 -174 -48 0
-1213 -174 -55 0
-1213 -174 -83 0
-1213 -174 -20 -160 0
-1213 -174 -27 -160 0
-1213 -174 -34 -160 0
-1213 -174 -62 -181 0
-1213 -174 -69 -181 0
-1213 -174 -76 -181 0
-1213 -174 -97 -202 0
-1213 -174 -104 -202 0
-1213 -174 -111 -202 0
-1213 -174 -118 -202 0
-1213 -174 307 433 559 328 454 580 0
-1213 -174 307 433 559 349 475 601 0
-1213 -174 328 454 580 349 475 601 0
-1213 -181 140 0
-1213 -181 231 0
-1213 -181 -48 0
-1213 -181 -55 0
-1213 -181 -83 0
-1213 -181 -20 -167 0
-1213 -181 -27 -167 0
-1213 -181 -34 -167 0
-1213 -181 -62 -188 0
-1213 -181 -69 -188 0
-1213 -181 -76 -188 0
-1213 -181 -97 -209 0
-1213 -181 -104 -209 0
-1213 -181 -111 -209 0
-1213 -181 -118 -209 0
-1213 -181 314 440 566 335 461 587 0
-1213 -181 314 440 566 356 482 608 0
-1213 -181 335 461 587 356 482 608 0
-1213 -139 -174 -223 0
-1213 -139 -181 -230 0
-1219 258 0
-1219 -188 0
-1219 -174 147 0
-1219 -174 224 0
-1219 -174 -48 0
-1219 -174 -55 0
-1219 -174 -62 0
-1219 -174 -27 -160 0
-1219 -174 -34 -160 0
-1219 -174 -41 -160 0
-1219 -174 -69 -181 0
-1219 -174 -76 -181 0
-1219 -174 -83 -181 0
-1219 -174 -104 -202 0
-1219 -174 -111 -202 0
-1219 -174 -118 -202 0
-1219 -174 328 454 580 349 475 601 0
-1219 -174 328 454 580 370 496 622 0
-1219 -174 349 475 601 370 496 622 0
-1219 -181 147 0
-1219 -181 231 0
-1219 -181 -48 0
-1219 -181 -55 0
-1219 -181 -62 0
-1219 -181 -27 -167 0
-1219 -181 -34 -167 0
-1219 -181 -41 -167 0
-1219 -181 -69 -188 0
-1219 -181 -76 -188 0
-1219 -181 -83 -188 0
-1219 -181 -104 -209 0
-1219 -181 -111 -209 0
-1219 -181 -118 -209 0
-1219 -181 335 461 587 356 482 608 0
-1219 -181 335 461 587 377 503 629 0
-1219 -181 356 482 608 377 503 629 0
-1219 -146 -174 -223 0
-1219 -146 -181 -230 0
-1225 258 0
-1225 -209 0
-1225 -195 126 0
-1225 -195 224 0
-1225 -195 -111 0
-1225 -195 -118 0
-1225 -195 -6 -160 0
-1225 -195 -13 -160 0
-1225 -195 -20 -160 0
-1225 -195 -48 -181 0
-1225 -195 -55 -181 0
-1225 -195 -62 -181 0
-1225 -195 -90 -202 0
-1225 -195 -97 -202 0
-1225 -195 -104 -202 0
-1225 -195 265 391 517 286 412 538 0
-1225 -195 265 391 517 307 433 559 0
-1225 -195 286 412 538 307 433 559 0
-1225 -202 126 0
-1225 -202 231 0
-1225 -202 -111 0
-1225 -202 -118 0
-1225 -202 -6 -167 0
-1225 -202 -13 -167 0
-1225 -202 -20 -167 0
-1225 -202 -48 -188 0
-1225 -202 -55 -188 0
-1225 -202 -62 -188 0
-1225 -202 -90 -209 0
-1225 -202 -97 -209 0
-1225 -202 -104 -209 0
-1225 -202 272 398 524 293 419 545 0
-1225 -202 272 398 524 314 440 566 0
-1225 -202 293 419 545 314 440 566 0
-1225 -125 -195 -223 0
-1225 -125 -202 -230 0
-1231 258 0
-1231 -209 0
-1231 -195 133 0
-1231 -195 224 0
-1231 -195 -118 0
-1231 -195 -13 -160 0
-1231 -195 -20 -160 0
-1231 -195 -27 -160 0
-1231 -195 -55 -181 0
-1231 -195 -62 -181 0
-1231 -195 -69 -181 0
-1231 -195 -90 -202 0
-1231 -195 -97 -202 0
-1231 -195 -104 -202 0
-1231 -195 -111 -202 0
-1231 -195 286 412 538 307 433 559 0
-1231 -195 286 412 538 328 454 580 0
-1231 -195 307 433 559 328 454 580 0
-1231 -202 133 0
-1231 -202 231 0
-1231 -202 -118 0
-1231 -202 -13 -167 0
-1231 -202 -20 -167 0
-1231 -202 -27 -167 0
-1231 -202 -55 -188 0
-1231 -202 -62 -188 0
-1231 -202 -69 -188 0
-1231 -202 -90 -209 0
-1231 -202 -97 -209 0
-1231 -202 -104 -209 0
-1231 -202 -111 -209 0
-1231 -202 293 419 545 314 440 566 0
-1231 -202 293 419 545 335 461 587 0
-1231 -202 314 440 566 335 461 587 0
-1231 -132 -195 -223 0
-1231 -132 -202 -230 0
-1237 258 0
-1237 -209 0
-1237 -195 140 0
-1237 -195 224 0
-1237 -195 -90 0
-1237 -195 -20 -160 0
-1237 -195 -27 -160 0
-1237 -195 -34 -160 0
-1237 -195 -62 -181 0
-1237 -195 -69 -181 0
-1237 -195 -76 -181 0
-1237 -195 -97 -202 0
-1237 -195 -104 -202 0
-1237 -195 -111 -202 0
-1237 -195 -118 -202 0
-1237 -195 307 433 559 328 454 580 0
-1237 -195 307 433 559 349 475 601 0
-1237 -195 328 454 580 349 475 601 0
-1237 -202 140 0
-1237 -202 231 0
-1237 -202 -90 0
-1237 -202 -20 -167 0
-1237 -202 -27 -167 0
-1237 -202 -34 -167 0
-1237 -202 -62 -188 0
-1237 -202 -69 -188 0
-1237 -202 -76 -188 0
-1237 -202 -97 -209 0
-1237 -202 -104 -209 0
-1237 -202 -111 -209 0
-1237 -202 -118 -209 0
-1237 -202 314 440 566 335 461 587 0
-1237 -202 314 440 566 356 482 608 0
-1237 -202 335 461 587 356 482 608 0
-1237 -139 -195 -223 0
-1237 -139 -202 -230 0
-1243 258 0
-1243 -209 0
-1243 -195 147 0
-1243 -195 224 0
-1243 -195 -90 0
-1243 -195 -97 0
-1243 -195 -27 -160 0
-1243 -195 -34 -160 0
-1243 -195 -41 -160 0
-1243 -195 -69 -181 0
-1243 -195 -76 -181 0
-1243 -195 -83 -181 0
-1243 -195 -104 -202 0
-1243 -195 -111 -202 0
-1243 -195 -118 -202 0
-1243 -195 328 454 580 349 475 601 0
-1243 -195 328 454 580 370 496 622 0
-1243 -195 349 475 601 370 496 622 0
-1243 -202 147 0
-1243 -202 231 0
-1243 -202 -90 0
-1243 -202 -97 0
-1243 -202 -27 -167 0
-1243 -202 -34 -167 0
-1243 -202 -41 -167 0
-1243 -202 -69 -188 0
-1243 -202 -76 -188 0
-1243 -202 -83 -188 0
-1243 -202 -104 -209 0
-1243 -202 -111 -209 0
-1243 -202 -118 -209 0
-1243 -202 335 461 587 356 482 608 0
-1243 -202 335 461 587 377 503 629 0
-1243 -202 356 482 608 377 503 629 0
-1243 -146 -195 -223 0
-1243 -146 -202 -230 0
-1249 258 0
-1249 126 0
-1249 217 0
-1249 -125 -216 0
-1249 -6 -153 0
-1249 -13 -153 0
-1249 -20 -153 0
-1249 -48 -174 0
-1249 -55 -174 0
-1249 -62 -174 0
-1249 -90 -195 0
-1249 -97 -195 0
-1249 -104 -195 0
-1255 258 0
-1255 133 0
-1255 217 0
-1255 -132 -216 0
-1255 -13 -153 0
-1255 -20 -153 0
-1255 -27 -153 0
-1255 -55 -174 0
-1255 -62 -174 0
-1255 -69 -174 0
-1255 -90 -195 0
-1255 -97 -195 0
-1255 -104 -195 0
-1255 -111 -195 0
-1261 258 0
-1261 140 0
-1261 217 0
-1261 -139 -216 0
-1261 -20 -153 0
-1261 -27 -153 0
-1261 -34 -153 0
-1261 -62 -174 0
-1261 -69 -174 0
-1261 -76 -174 0
-1261 -97 -195 0
-1261 -104 -195 0
-1261 -111 -195 0
-1261 -118 -195 0
-1267 258 0
-1267 147 0
-1267 217 0
-1267 -146 -216 0
-1267 -27 -153 0
-1267 -34 -153 0
-1267 -41 -153 0
-1267 -69 -174 0
-1267 -76 -174 0
-1267 -83 -174 0
-1267 -104 -195 0
-1267 -111 -195 0
-1267 -118 -195 0
-908 -1 2 0
-908 -8 9 0
-908 -15 16 0
-908 -22 23 0
-908 -29 30 0
-908 -36 37 0
-908 -148 149 0
-908 -155 156 0
-908 -162 163 0
-914 -1 2 0
-914 -8 9 0
-914 -15 16 0
-914 -22 23 0
-914 -29 30 0
-914 -36 37 0
-914 -148 149 0
-914 -155 156 0
-914 -162 163 0
-920 -1 2 0
-920 -8 9 0
-920 -15 16 0
-920 -22 23 0
-920 -29 30 0
-920 -36 37 0
-920 -148 149 0
-920 -155 156 0
-920 -162 163 0
-926 -1 2 0
-926 -8 9 0
-926 -15 16 0
-926 -22 23 0
-926 -29 30 0
-926 -36 37 0
-926 -148 149 0
-926 -155 156 0
-926 -162 163 0
-932 -1 2 0
-932 -8 9 0
-932 -15 16 0
-932 -22 23 0
-932 -29 30 0
-932 -36 37 0
-932 -148 149 0
-932 -155 156 0
-932 -162 163 0
-938 -1 2 0
-938 -8 9 0
-938 -15 16 0
-938 -22 23 0
-938 -29 30 0
-938 -36 37 0
-938 -148 149 0
-938 -155 156 0
-938 -162 163 0
-944 -1 2 0
-944 -8 9 0
-944 -15 16 0
-944 -22 23 0
-944 -29 30 0
-944 -36 37 0
-944 -148 149 0
-944 -155 156 0
-944 -162 163 0
-950 -1 2 0
-950 -8 9 0
-950 -15 16 0
-950 -22 23 0
-950 -29 30 0
-950 -36 37 0
-950 -148 149 0
-950 -155 156 0
-950 -162 163 0
-956 -1 2 0
-956 -8 9 0
-956 -15 16 0
-956 -22 23 0
-956 -29 30 0
-956 -36 37 0
-956 -148 149 0
-956 -155 156 0
-956 -162 163 0
-962 -1 2 0
-962 -8 9 0
-962 -15 16 0
-962 -22 23 0
-962 -29 30 0
-962 -36 37 0
-962 -148 149 0
-962 -155 156 0
-962 -162 163 0
-968 -1 2 0
-968 -8 9 0
-968 -15 16 0
-968 -22 23 0
-968 -29 30 0
-968 -36 37 0
-968 -148 149 0
-968 -155 156 0
-968 -162 163 0
-974 -1 2 0
-974 -8 9 0
-974 -15 16 0
-974 -22 23 0
-974 -29 30 0
-974 -36 37 0
-974 -148 149 0
-974 -155 156 0
-974 -162 163 0
-980 -1 2 0
-980 -8 9 0
-980 -15 16 0
-980 -22 23 0
-980 -29 30 0
-980 -36 37 0
-980 -148 149 0
-980 -155 156 0
-980 -162 163 0
-986 -1 2 0
-986 -8 9 0
-986 -15 16 0
-986 -22 23 0
-986 -29 30 0
-986 -36 37 0
-986 -148 149 0
-986 -155 156 0
-986 -162 163 0
-992 -1 2 0
-992 -8 9 0
-992 -15 16 0
-992 -22 23 0
-992 -29 30 0
-992 -36 37 0
-992 -148 149 0
-992 -155 156 0
-992 -162 163 0
-998 -1 2 0
-998 -8 9 0
-998 -15 16 0
-998 -22 23 0
-998 -29 30 0
-998 -36 37 0
-998 -148 149 0
-998 -155 156 0
-998 -162 163 0
-1004 -1 2 0
-1004 -8 9 0
-1004 -15 16 0
-1004 -22 23 0
-1004 -29 30 0
-1004 -36 37 0
-1004 -148 149 0
-1004 -155 156 0
-1004 -162 163 0
-1010 -1 2 0
-1010 -8 9 0
-1010 -15 16 0
-1010 -22 23 0
-1010 -29 30 0
-1010 -36 37 0
-1010 -148 149 0
-1010 -155 156 0
-1010 -162 163 0
-1016 -1 2 0
-1016 -8 9 0
-1016 -15 16 0
-1016 -22 23 0
-1016 -29 30 0
-1016 -36 37 0
-1016 -148 149 0
-1016 -155 156 0
-1016 -162 163 0
-1022 -1 2 0
-1022 -8 9 0
-1022 -15 16 0
-1022 -22 23 0
-1022 -29 30 0
-1022 -36 37 0
-1022 -148 149 0
-1022 -155 156 0
-1022 -162 163 0
-1028 -1 2 0
-1028 -8 9 0
-1028 -15 16 0
-1028 -22 23 0
-1028 -29 30 0
-1028 -36 37 0
-1028 -148 149 0
-1028 -155 156 0
-1028 -162 163 0
-1034 -1 2 0
-1034 -8 9 0
-1034 -15 16 0
-1034 -22 23 0
-1034 -29 30 0
-1034 -36 37 0
-1034 -148 149 0
-1034 -155 156 0
-1034 -162 163 0
-1040 -1 2 0
-1040 -8 9 0
-1040 -15 16 0
-1040 -22 23 0
-1040 -29 30 0
-1040 -36 37 0
-1040 -148 149 0
-1040 -155 156 0
-1040 -162 163 0
-1046 -1 2 0
-1046 -8 9 0
-1046 -15 16 0
-1046 -22 23 0
-1046 -29 30 0
-1046 -36 37 0
-1046 -148 149 0
-1046 -155 156 0
-1046 -162 163 0
-1052 -1 2 0
-1052 -8 9 0
-1052 -15 16 0
-1052 -22 23 0
-1052 -29 30 0
-1052 -36 37 0
-1052 -148 149 0
-1052 -155 156 0
-1052 -162 163 0
-1058 -1 2 0
-1058 -8 9 0
-1058 -15 16 0
-1058 -22 23 0
-1058 -29 30 0
-1058 -36 37 0
-1058 -148 149 0
-1058 -155 156 0
-1058 -162 163 0
-1064 -1 2 0
-1064 -8 9 0
-1064 -15 16 0
-1064 -22 23 0
-1064 -29 30 0
-1064 -36 37 0
-1064 -148 149 0
-1064 -155 156 0
-1064 -162 163 0
-1070 -1 2 0
-1070 -8 9 0
-1070 -15 16 0
-1070 -22 23 0
-1070 -29 30 0
-1070 -36 37 0
-1070 -148 149 0
-1070 -155 156 0
-1070 -162 163 0
-1076 -1 2 0
-1076 -8 9 0
-1076 -15 16 0
-1076 -22 23 0
-1076 -29 30 0
-1076 -36 37 0
-1076 -148 149 0
-1076 -155 156 0
-1076 -162 163 0
-1082 -1 2 0
-1082 -8 9 0
-1082 -15 16 0
-1082 -22 23 0
-1082 -29 30 0
-1082 -36 37 0
-1082 -148 149 0
-1082 -155 156 0
-1082 -162 163 0
-1088 -1 2 0
-1088 -8 9 0
-1088 -15 16 0
-1088 -22 23 0
-1088 -29 30 0
-1088 -36 37 0
-1088 -148 149 0
-1088 -155 156 0
-1088 -162 163 0
-1094 -1 2 0
-1094 -8 9 0
-1094 -15 16 0
-1094 -22 23 0
-1094 -29 30 0
-1094 -36 37 0
-1094 -148 149 0
-1094 -155 156 0
-1094 -162 163 0
-1100 -1 2 0
-1100 -8 9 0
-1100 -15 16 0
-1100 -22 23 0
-1100 -29 30 0
-1100 -36 37 0
-1100 -148 149 0
-1100 -155 156 0
-1100 -162 163 0
-1106 -1 2 0
-1106 -8 9 0
-1106 -15 16 0
-1106 -22 23 0
-1106 -29 30 0
-1106 -36 37 0
-1106 -148 149 0
-1106 -155 156 0
-1106 -162 163 0
-1112 -1 2 0
-1112 -8 9 0
-1112 -15 16 0
-1112 -22 23 0
-1112 -29 30 0
-1112 -36 37 0
-1112 -148 149 0
-1112 -155 156 0
-1112 -162 163 0
-1118 -1 2 0
-1118 -8 9 0
-1118 -15 16 0
-1118 -22 23 0
-1118 -29 30 0
-1118 -36 37 0
-1118 -148 149 0
-1118 -155 156 0
-1118 -162 163 0
-1124 -1 2 0
-1124 -8 9 0
-1124 -15 16 0
-1124 -22 23 0
-1124 -29 30 0
-1124 -36 37 0
-1124 -148 149 0
-1124 -155 156 0
-1124 -162 163 0
-1130 -1 2 0
-1130 -8 9 0
-1130 -15 16 0
-1130 -22 23 0
-1130 -29 30 0
-1130 -36 37 0
-1130 -148 149 0
-1130 -155 156 0
-1130 -162 163 0
-1136 -1 2 0
-1136 -8 9 0
-1136 -15 16 0
-1136 -22 23 0
-1136 -29 30 0
-1136 -36 37 0
-1136 -148 149 0
-1136 -155 156 0
-1136 -162 163 0
-1142 -1 2 0
-1142 -8 9 0
-1142 -15 16 0
-1142 -22 23 0
-1142 -29 30 0
-1142 -36 37 0
-1142 -148 149 0
-1142 -155 156 0
-1142 -162 163 0
-1148 -1 2 0
-1148 -8 9 0
-1148 -15 16 0
-1148 -22 23 0
-1148 -29 30 0
-1148 -36 37 0
-1148 -148 149 0
-1148 -155 156 0
-1148 -162 163 0
-1154 -1 2 0
-1154 -8 9 0
-1154 -15 16 0
-1154 -22 23 0
-1154 -29 30 0
-1154 -36 37 0
-1154 -148 149 0
-1154 -155 156 0
-1154 -162 163 0
-1160 -1 2 0
-1160 -8 9 0
-1160 -15 16 0
-1160 -22 23 0
-1160 -29 30 0
-1160 -36 37 0
-1160 -148 149 0
-1160 -155 156 0
-1160 -162 163 0
-1166 -1 2 0
-1166 -8 9 0
-1166 -15 16 0
-1166 -22 23 0
-1166 -29 30 0
-1166 -36 37 0
-1166 -148 149 0
-1166 -155 156 0
-1166 -162 163 0
-1172 -1 2 0
-1172 -8 9 0
-1172 -15 16 0
-1172 -22 23 0
-1172 -29 30 0
-1172 -36 37 0
-1172 -148 149 0
-1172 -155 156 0
-1172 -162 163 0
-1178 -1 2 0
-1178 -8 9 0
-1178 -15 16 0
-1178 -22 23 0
-1178 -29 30 0
-1178 -36 37 0
-1178 -148 149 0
-1178 -155 156 0
-1178 -162 163 0
-1184 -1 2 0
-1184 -8 9 0
-1184 -15 16 0
-1184 -22 23 0
-1184 -29 30 0
-1184 -36 37 0
-1184 -148 149 0
-1184 -155 156 0
-1184 -162 163 0
-1190 -1 2 0
-1190 -8 9 0
-1190 -15 16 0
-1190 -22 23 0
-1190 -29 30 0
-1190 -36 37 0
-1190 -148 149 0
-1190 -155 156 0
-1190 -162 163 0
-1196 -1 2 0
-1196 -8 9 0
-1196 -15 16 0
-1196 -22 23 0
-1196 -29 30 0
-1196 -36 37 0
-1196 -148 149 0
-1196 -155 156 0
-1196 -162 163 0
-1202 -1 2 0
-1202 -8 9 0
-1202 -15 16 0
-1202 -22 23 0
-1202 -29 30 0
-1202 -36 37 0
-1202 -148 149 0
-1202 -155 156 0
-1202 -162 163 0
-1208 -1 2 0
-1208 -8 9 0
-1208 -15 16 0
-1208 -22 23 0
-1208 -29 30 0
-1208 -36 37 0
-1208 -148 149 0
-1208 -155 156 0
-1208 -162 163 0
-1214 -1 2 0
-1214 -8 9 0
-1214 -15 16 0
-1214 -22 23 0
-1214 -29 30 0
-1214 -36 37 0
-1214 -148 149 0
-1214 -155 156 0
-1214 -162 163 0
-1220 -1 2 0
-1220 -8 9 0
-1220 -15 16 0
-1220 -22 23 0
-1220 -29 30 0
-1220 -36 37 0
-1220 -148 149 0
-1220 -155 156 0
-1220 -162 163 0
-1226 -1 2 0
-1226 -8 9 0
-1226 -15 16 0
-1226 -22 23 0
-1226 -29 30 0
-1226 -36 37 0
-1226 -148 149 0
-1226 -155 156 0
-1226 -162 163 0
-1232 -1 2 0
-1232 -8 9 0
-1232 -15 16 0
-1232 -22 23 0
-1232 -29 30 0
-1232 -36 37 0
-1232 -148 149 0
-1232 -155 156 0
-1232 -162 163 0
-1238 -1 2 0
-1238 -8 9 0
-1238 -15 16 0
-1238 -22 23 0
-1238 -29 30 0
-1238 -36 37 0
-1238 -148 149 0
-1238 -155 156 0
-1238 -162 163 0
-1244 -1 2 0
-1244 -8 9 0
-1244 -15 16 0
-1244 -22 23 0
-1244 -29 30 0
-1244 -36 37 0
-1244 -148 149 0
-1244 -155 156 0
-1244 -162 163 0
-1250 -1 2 0
-1250 -8 9 0
-1250 -15 16 0
-1250 -22 23 0
-1250 -29 30 0
-1250 -36 37 0
-1250 -148 149 0
-1250 -155 156 0
-1250 -162 163 0
-1256 -1 2 0
-1256 -8 9 0
-1256 -15 16 0
-1256 -22 23 0
-1256 -29 30 0
-1256 -36 37 0
-1256 -148 149 0
-1256 -155 156 0
-1256 -162 163 0
-1262 -1 2 0
-1262 -8 9 0
-1262 -15 16 0
-1262 -22 23 0
-1262 -29 30 0
-1262 -36 37 0
-1262 -148 149 0
-1262 -155 156 0
-1262 -162 163 0
-764 -43 44 0
-764 -50 51 0
-764 -57 58 0
-764 -64 65 0
-764 -71 72 0
-764 -78 79 0
-764 -169 170 0
-764 -176 177 0
-764 -183 184 0
-770 -43 44 0
-770 -50 51 0
-770 -57 58 0
-770 -64 65 0
-770 -71 72 0
-770 -78 79 0
-770 -169 170 0
-770 -176 177 0
-770 -183 184 0
-776 -43 44 0
-776 -50 51 0
-776 -57 58 0
-776 -64 65 0
-776 -71 72 0
-776 -78 79 0
-776 -169 170 0
-776 -176 177 0
-776 -183 184 0
-782 -43 44 0
-782 -50 51 0
-782 -57 58 0
-782 -64 65 0
-782 -71 72 0
-782 -78 79 0
-782 -169 170 0
-782 -176 177 0
-782 -183 184 0
-788 -43 44 0
-788 -50 51 0
-788 -57 58 0
-788 -64 65 0
-788 -71 72 0
-788 -78 79 0
-788 -169 170 0
-788 -176 177 0
-788 -183 184 0
-794 -43 44 0
-794 -50 51 0
-794 -57 58 0
-794 -64 65 0
-794 -71 72 0
-794 -78 79 0
-794 -169 170 0
-794 -176 177 0
-794 -183 184 0
-800 -43 44 0
-800 -50 51 0
-800 -57 58 0
-800 -64 65 0
-800 -71 72 0
-800 -78 79 0
-800 -169 170 0
-800 -176 177 0
-800 -183 184 0
-806 -43 44 0
-806 -50 51 0
-806 -57 58 0
-806 -64 65 0
-806 -71 72 0
-806 -78 79 0
-806 -169 170 0
-806 -176 177 0
-806 -183 184 0
-812 -43 44 0
-812 -50 51 0
-812 -57 58 0
-812 -64 65 0
-812 -71 72 0
-812 -78 79 0
-812 -169 170 0
-812 -176 177 0
-812 -183 184 0
-818 -43 44 0
-818 -50 51 0
-818 -57 58 0
-818 -64 65 0
-818 -71 72 0
-818 -78 79 0
-818 -169 170 0
-818 -176 177 0
-818 -183 184 0
-824 -43 44 0
-824 -50 51 0
-824 -57 58 0
-824 -64 65 0
-824 -71 72 0
-824 -78 79 0
-824 -169 170 0
-824 -176 177 0
-824 -183 184 0
-830 -43 44 0
-830 -50 51 0
-830 -57 58 0
-830 -64 65 0
-830 -71 72 0
-830 -78 79 0
-830 -169 170 0
-830 -176 177 0
-830 -183 184 0
-836 -43 44 0
-836 -50 51 0
-836 -57 58 0
-836 -64 65 0
-836 -71 72 0
-836 -78 79 0
-836 -169 170 0
-836 -176 177 0
-836 -183 184 0
-842 -43 44 0
-842 -50 51 0
-842 -57 58 0
-842 -64 65 0
-842 -71 72 0
-842 -78 79 0
-842 -169 170 0
-842 -176 177 0
-842 -183 184 0
-848 -43 44 0
-848 -50 51 0
-848 -57 58 0
-848 -64 65 0
-848 -71 72 0
-848 -78 79 0
-848 -169 170 0
-848 -176 177 0
-848 -183 184 0
-854 -43 44 0
-854 -50 51 0
-854 -57 58 0
-854 -64 65 0
-854 -71 72 0
-854 -78 79 0
-854 -169 170 0
-854 -176 177 0
-854 -183 184 0
-860 -43 44 0
-860 -50 51 0
-860 -57 58 0
-860 -64 65 0
-860 -71 72 0
-860 -78 79 0
-860 -169 170 0
-860 -176 177 0
-860 -183 184 0
-866 -43 44 0
-866 -50 51 0
-866 -57 58 0
-866 -64 65 0
-866 -71 72 0
-866 -78 79 0
-866 -169 170 0
-866 -176 177 0
-866 -183 184 0
-872 -43 44 0
-872 -50 51 0
-872 -57 58 0
-872 -64 65 0
-872 -71 72 0
-872 -78 79 0
-872 -169 170 0
-872 -176 177 0
-872 -183 184 0
-878 -43 44 0
-878 -50 51 0
-878 -57 58 0
-878 -64 65 0
-878 -71 72 0
-878 -78 79 0
-878 -169 170 0
-878 -176 177 0
-878 -183 184 0
-884 -43 44 0
-884 -50 51 0
-884 -57 58 0
-884 -64 65 0
-884 -71 72 0
-884 -78 79 0
-884 -169 170 0
-884 -176 177 0
-884 -183 184 0
-890 -43 44 0
-890 -50 51 0
-890 -57 58 0
-890 -64 65 0
-890 -71 72 0
-890 -78 79 0
-890 -169 170 0
-890 -176 177 0
-890 -183 184 0
-896 -43 44 0
-896 -50 51 0
-896 -57 58 0
-896 -64 65 0
-896 -71 72 0
-896 -78 79 0
-896 -169 170 0
-896 -176 177 0
-896 -183 184 0
-902 -43 44 0
-902 -50 51 0
-902 -57 58 0
-902 -64 65 0
-902 -71 72 0
-902 -78 79 0
-902 -169 170 0
-902 -176 177 0
-902 -183 184 0
-1052 -43 44 0
-1052 -50 51 0
-1052 -57 58 0
-1052 -64 65 0
-1052 -71 72 0
-1052 -78 79 0
-1052 -169 170 0
-1052 -176 177 0
-1052 -183 184 0
-1058 -43 44 0
-1058 -50 51 0
-1058 -57 58 0
-1058 -64 65 0
-1058 -71 72 0
-1058 -78 79 0
-1058 -169 170 0
-1058 -176 177 0
-1058 -183 184 0
-1064 -43 44 0
-1064 -50 51 0
-1064 -57 58 0
-1064 -64 65 0
-1064 -71 72 0
-1064 -78 79 0
-1064 -169 170 0
-1064 -176 177 0
-1064 -183 184 0
-1070 -43 44 0
-1070 -50 51 0
-1070 -57 58 0
-1070 -64 65 0
-1070 -71 72 0
-1070 -78 79 0
-1070 -169 170 0
-1070 -176 177 0
-1070 -183 184 0
-1076 -43 44 0
-1076 -50 51 0
-1076 -57 58 0
-1076 -64 65 0
-1076 -71 72 0
-1076 -78 79 0
-1076 -169 170 0
-1076 -176 177 0
-1076 -183 184 0
-1082 -43 44 0
-1082 -50 51 0
-1082 -57 58 0
-1082 -64 65 0
-1082 -71 72 0
-1082 -78 79 0
-1082 -169 170 0
-1082 -176 177 0
-1082 -183 184 0
-1088 -43 44 0
-1088 -50 51 0
-1088 -57 58 0
-1088 -64 65 0
-1088 -71 72 0
-1088 -78 79 0
-1088 -169 170 0
-1088 -176 177 0
-1088 -183 184 0
-1094 -43 44 0
-1094 -50 51 0
-1094 -57 58 0
-1094 -64 65 0
-1094 -71 72 0
-1094 -78 79 0
-1094 -169 170 0
-1094 -176 177 0
-1094 -183 184 0
-1100 -43 44 0
-1100 -50 51 0
-1100 -57 58 0
-1100 -64 65 0
-1100 -71 72 0
-1100 -78 79 0
-1100 -169 170 0
-1100 -176 177 0
-1100 -183 184 0
-1106 -43 44 0
-1106 -50 51 0
-1106 -57 58 0
-1106 -64 65 0
-1106 -71 72 0
-1106 -78 79 0
-1106 -169 170 0
-1106 -176 177 0
-1106 -183 184 0
-1112 -43 44 0
-1112 -50 51 0
-1112 -57 58 0
-1112 -64 65 0
-1112 -71 72 0
-1112 -78 79 0
-1112 -169 170 0
-1112 -176 177 0
-1112 -183 184 0
-1118 -43 44 0
-1118 -50 51 0
-1118 -57 58 0
-1118 -64 65 0
-1118 -71 72 0
-1118 -78 79 0
-1118 -169 170 0
-1118 -176 177 0
-1118 -183 184 0
-1124 -43 44 0
-1124 -50 51 0
-1124 -57 58 0
-1124 -64 65 0
-1124 -71 72 0
-1124 -78 79 0
-1124 -169 170 0
-1124 -176 177 0
-1124 -183 184 0
-1130 -43 44 0
-1130 -50 51 0
-1130 -57 58 0
-1130 -64 65 0
-1130 -71 72 0
-1130 -78 79 0
-1130 -169 170 0
-1130 -176 177 0
-1130 -183 184 0
-1136 -43 44 0
-1136 -50 51 0
-1136 -57 58 0
-1136 -64 65 0
-1136 -71 72 0
-1136 -78 79 0
-1136 -169 170 0
-1136 -176 177 0
-1136 -183 184 0
-1142 -43 44 0
-1142 -50 51 0
-1142 -57 58 0
-1142 -64 65 0
-1142 -71 72 0
-1142 -78 79 0
-1142 -169 170 0
-1142 -176 177 0
-1142 -183 184 0
-1148 -43 44 0
-1148 -50 51 0
-1148 -57 58 0
-1148 -64 65 0
-1148 -71 72 0
-1148 -78 79 0
-1148 -169 170 0
-1148 -176 177 0
-1148 -183 184 0
-1154 -43 44 0
-1154 -50 51 0
-1154 -57 58 0
-1154 -64 65 0
-1154 -71 72 0
-1154 -78 79 0
-1154 -169 170 0
-1154 -176 177 0
-1154 -183 184 0
-1160 -43 44 0
-1160 -50 51 0
-1160 -57 58 0
-1160 -64 65 0
-1160 -71 72 0
-1160 -78 79 0
-1160 -169 170 0
-1160 -176 177 0
-1160 -183 184 0
-1166 -43 44 0
-1166 -50 51 0
-1166 -57 58 0
-1166 -64 65 0
-1166 -71 72 0
-1166 -78 79 0
-1166 -169 170 0
-1166 -176 177 0
-1166 -183 184 0
-1172 -43 44 0
-1172 -50 51 0
-1172 -57 58 0
-1172 -64 65 0
-1172 -71 72 0
-1172 -78 79 0
-1172 -169 170 0
-1172 -176 177 0
-1172 -183 184 0
-1178 -43 44 0
-1178 -50 51 0
-1178 -57 58 0
-1178 -64 65 0
-1178 -71 72 0
-1178 -78 79 0
-1178 -169 170 0
-1178 -176 177 0
-1178 -183 184 0
-1184 -43 44 0
-1184 -50 51 0
-1184 -57 58 0
-1184 -64 65 0
-1184 -71 72 0
-1184 -78 79 0
-1184 -169 170 0
-1184 -176 177 0
-1184 -183 184 0
-1190 -43 44 0
-1190 -50 51 0
-1190 -57 58 0
-1190 -64 65 0
-1190 -71 72 0
-1190 -78 79 0
-1190 -169 170 0
-1190 -176 177 0
-1190 -183 184 0
-1196 -43 44 0
-1196 -50 51 0
-1196 -57 58 0
-1196 -64 65 0
-1196 -71 72 0
-1196 -78 79 0
-1196 -169 170 0
-1196 -176 177 0
-1196 -183 184 0
-1202 -43 44 0
-1202 -50 51 0
-1202 -57 58 0
-1202 -64 65 0
-1202 -71 72 0
-1202 -78 79 0
-1202 -169 170 0
-1202 -176 177 0
-1202 -183 184 0
-1208 -43 44 0
-1208 -50 51 0
-1208 -57 58 0
-1208 -64 65 0
-1208 -71 72 0
-1208 -78 79 0
-1208 -169 170 0
-1208 -176 177 0
-1208 -183 184 0
-1214 -43 44 0
-1214 -50 51 0
-1214 -57 58 0
-1214 -64 65 0
-1214 -71 72 0
-1214 -78 79 0
-1214 -169 170 0
-1214 -176 177 0
-1214 -183 184 0
-1220 -43 44 0
-1220 -50 51 0
-1220 -57 58 0
-1220 -64 65 0
-1220 -71 72 0
-1220 -78 79 0
-1220 -169 170 0
-1220 -176 177 0
-1220 -183 184 0
-1226 -43 44 0
-1226 -50 51 0
-1226 -57 58 0
-1226 -64 65 0
-1226 -71 72 0
-1226 -78 79 0
-1226 -169 170 0
-1226 -176 177 0
-1226 -183 184 0
-1232 -43 44 0
-1232 -50 51 0
-1232 -57 58 0
-1232 -64 65 0
-1232 -71 72 0
-1232 -78 79 0
-1232 -169 170 0
-1232 -176 177 0
-1232 -183 184 0
-1238 -43 44 0
-1238 -50 51 0
-1238 -57 58 0
-1238 -64 65 0
-1238 -71 72 0
-1238 -78 79 0
-1238 -169 170 0
-1238 -176 177 0
-1238 -183 184 0
-1244 -43 44 0
-1244 -50 51 0
-1244 -57 58 0
-1244 -64 65 0
-1244 -71 72 0
-1244 -78 79 0
-1244 -169 170 0
-1244 -176 177 0
-1244 -183 184 0
-1250 -43 44 0
-1250 -50 51 0
-1250 -57 58 0
-1250 -64 65 0
-1250 -71 72 0
-1250 -78 79 0
-1250 -169 170 0
-1250 -176 177 0
-1250 -183 184 0
-1256 -43 44 0
-1256 -50 51 0
-1256 -57 58 0
-1256 -64 65 0
-1256 -71 72 0
-1256 -78 79 0
-1256 -169 170 0
-1256 -176 177 0
-1256 -183 184 0
-1262 -43 44 0
-1262 -50 51 0
-1262 -57 58 0
-1262 -64 65 0
-1262 -71 72 0
-1262 -78 79 0
-1262 -169 170 0
-1262 -176 177 0
-1262 -183 184 0
-764 -85 86 0
-764 -92 93 0
-764 -99 100 0
-764 -106 107 0
-764 -113 114 0
-764 -190 191 0
-764 -197 198 0
-764 -204 205 0
-770 -85 86 0
-770 -92 93 0
-770 -99 100 0
-770 -106 107 0
-770 -113 114 0
-770 -190 191 0
-770 -197 198 0
-770 -204 205 0
-776 -85 86 0
-776 -92 93 0
-776 -99 100 0
-776 -106 107 0
-776 -113 114 0
-776 -190 191 0
-776 -197 198 0
-776 -204 205 0
-782 -85 86 0
-782 -92 93 0
-782 -99 100 0
-782 -106 107 0
-782 -113 114 0
-782 -190 191 0
-782 -197 198 0
-782 -204 205 0
-788 -85 86 0
-788 -92 93 0
-788 -99 100 0
-788 -106 107 0
-788 -113 114 0
-788 -190 191 0
-788 -197 198 0
-788 -204 205 0
-794 -85 86 0
-794 -92 93 0
-794 -99 100 0
-794 -106 107 0
-794 -113 114 0
-794 -190 191 0
-794 -197 198 0
-794 -204 205 0
-800 -85 86 0
-800 -92 93 0
-800 -99 100 0
-800 -106 107 0
-800 -113 114 0
-800 -190 191 0
-800 -197 198 0
-800 -204 205 0
-806 -85 86 0
-806 -92 93 0
-806 -99 100 0
-806 -106 107 0
-806 -113 114 0
-806 -190 191 0
-806 -197 198 0
-806 -204 205 0
-812 -85 86 0
-812 -92 93 0
-812 -99 100 0
-812 -106 107 0
-812 -113 114 0
-812 -190 191 0
-812 -197 198 0
-812 -204 205 0
-818 -85 86 0
-818 -92 93 0
-818 -99 100 0
-818 -106 107 0
-818 -113 114 0
-818 -190 191 0
-818 -197 198 0
-818 -204 205 0
-824 -85 86 0
-824 -92 93 0
-824 -99 100 0
-824 -106 107 0
-824 -113 114 0
-824 -190 191 0
-824 -197 198 0
-824 -204 205 0
-830 -85 86 0
-830 -92 93 0
-830 -99 100 0
-830 -106 107 0
-830 -113 114 0
-830 -190 191 0
-830 -197 198 0
-830 -204 205 0
-836 -85 86 0
-836 -92 93 0
-836 -99 100 0
-836 -106 107 0
-836 -113 114 0
-836 -190 191 0
-836 -197 198 0
-836 -204 205 0
-842 -85 86 0
-842 -92 93 0
-842 -99 100 0
-842 -106 107 0
-842 -113 114 0
-842 -190 191 0
-842 -197 198 0
-842 -204 205 0
-848 -85 86 0
-848 -92 93 0
-848 -99 100 0
-848 -106 107 0
-848 -113 114 0
-848 -190 191 0
-848 -197 198 0
-848 -204 205 0
-854 -85 86 0
-854 -92 93 0
-854 -99 100 0
-854 -106 107 0
-854 -113 114 0
-854 -190 191 0
-854 -197 198 0
-854 -204 205 0
-860 -85 86 0
-860 -92 93 0
-860 -99 100 0
-860 -106 107 0
-860 -113 114 0
-860 -190 191 0
-860 -197 198 0
-860 -204 205 0
-866 -85 86 0
-866 -92 93 0
-866 -99 100 0
-866 -106 107 0
-866 -113 114 0
-866 -190 191 0
-866 -197 198 0
-866 -204 205 0
-872 -85 86 0
-872 -92 93 0
-872 -99 100 0
-872 -106 107 0
-872 -113 114 0
-872 -190 191 0
-872 -197 198 0
-872 -204 205 0
-878 -85 86 0
-878 -92 93 0
-878 -99 100 0
-878 -106 107 0
-878 -113 114 0
-878 -190 191 0
-878 -197 198 0
-878 -204 205 0
-884 -85 86 0
-884 -92 93 0
-884 -99 100 0
-884 -106 107 0
-884 -113 114 0
-884 -190 191 0
-884 -197 198 0
-884 -204 205 0
-890 -85 86 0
-890 -92 93 0
-890 -99 100 0
-890 -106 107 0
-890 -113 114 0
-890 -190 191 0
-890 -197 198 0
-890 -204 205 0
-896 -85 86 0
-896 -92 93 0
-896 -99 100 0
-896 -106 107 0
-896 -113 114 0
-896 -190 191 0
-896 -197 198 0
-896 -204 205 0
-902 -85 86 0
-902 -92 93 0
-902 -99 100 0
-902 -106 107 0
-902 -113 114 0
-902 -190 191 0
-902 -197 198 0
-902 -204 205 0
-908 -85 86 0
-908 -92 93 0
-908 -99 100 0
-908 -106 107 0
-908 -113 114 0
-908 -190 191 0
-908 -197 198 0
-908 -204 205 0
-914 -85 86 0
-914 -92 93 0
-914 -99 100 0
-914 -106 107 0
-914 -113 114 0
-914 -190 191 0
-914 -197 198 0
-914 -204 205 0
-920 -85 86 0
-920 -92 93 0
-920 -99 100 0
-920 -106 107 0
-920 -113 114 0
-920 -190 191 0
-920 -197 198 0
-920 -204 205 0
-926 -85 86 0
-926 -92 93 0
-926 -99 100 0
-926 -106 107 0
-926 -113 114 0
-926 -190 191 0
-926 -197 198 0
-926 -204 205 0
-932 -85 86 0
-932 -92 93 0
-932 -99 100 0
-932 -106 107 0
-932 -113 114 0
-932 -190 191 0
-932 -197 198 0
-932 -204 205 0
-938 -85 86 0
-938 -92 93 0
-938 -99 100 0
-938 -106 107 0
-938 -113 114 0
-938 -190 191 0
-938 -197 198 0
-938 -204 205 0
-944 -85 86 0
-944 -92 93 0
-944 -99 100 0
-944 -106 107 0
-944 -113 114 0
-944 -190 191 0
-944 -197 198 0
-944 -204 205 0
-950 -85 86 0
-950 -92 93 0
-950 -99 100 0
-950 -106 107 0
-950 -113 114 0
-950 -190 191 0
-950 -197 198 0
-950 -204 205 0
-956 -85 86 0
-956 -92 93 0
-956 -99 100 0
-956 -106 107 0
-956 -113 114 0
-956 -190 191 0
-956 -197 198 0
-956 -204 205 0
-962 -85 86 0
-962 -92 93 0
-962 -99 100 0
-962 -106 107 0
-962 -113 114 0
-962 -190 191 0
-962 -197 198 0
-962 -204 205 0
-968 -85 86 0
-968 -92 93 0
-968 -99 100 0
-968 -106 107 0
-968 -113 114 0
-968 -190 191 0
-968 -197 198 0
-968 -204 205 0
-974 -85 86 0
-974 -92 93 0
-974 -99 100 0
-974 -106 107 0
-974 -113 114 0
-974 -190 191 0
-974 -197 198 0
-974 -204 205 0
-980 -85 86 0
-980 -92 93 0
-980 -99 100 0
-980 -106 107 0
-980 -113 114 0
-980 -190 191 0
-980 -197 198 0
-980 -204 205 0
-986 -85 86 0
-986 -92 93 0
-986 -99 100 0
-986 -106 107 0
-986 -113 114 0
-986 -190 191 0
-986 -197 198 0
-986 -204 205 0
-992 -85 86 0
-992 -92 93 0
-992 -99 100 0
-992 -106 107 0
-992 -113 114 0
-992 -190 191 0
-992 -197 198 0
-992 -204 205 0
-998 -85 86 0
-998 -92 93 0
-998 -99 100 0
-998 -106 107 0
-998 -113 114 0
-998 -190 191 0
-998 -197 198 0
-998 -204 205 0
-1004 -85 86 0
-1004 -92 93 0
-1004 -99 100 0
-1004 -106 107 0
-1004 -113 114 0
-1004 -190 191 0
-1004 -197 198 0
-1004 -204 205 0
-1010 -85 86 0
-1010 -92 93 0
-1010 -99 100 0
-1010 -106 107 0
-1010 -113 114 0
-1010 -190 191 0
-1010 -197 198 0
-1010 -204 205 0
-1016 -85 86 0
-1016 -92 93 0
-1016 -99 100 0
-1016 -106 107 0
-1016 -113 114 0
-1016 -190 191 0
-1016 -197 198 0
-1016 -204 205 0
-1022 -85 86 0
-1022 -92 93 0
-1022 -99 100 0
-1022 -106 107 0
-1022 -113 114 0
-1022 -190 191 0
-1022 -197 198 0
-1022 -204 205 0
-1028 -85 86 0
-1028 -92 93 0
-1028 -99 100 0
-1028 -106 107 0
-1028 -113 114 0
-1028 -190 191 0
-1028 -197 198 0
-1028 -204 205 0
-1034 -85 86 0
-1034 -92 93 0
-1034 -99 100 0
-1034 -106 107 0
-1034 -113 114 0
-1034 -190 191 0
-1034 -197 198 0
-1034 -204 205 0
-1040 -85 86 0
-1040 -92 93 0
-1040 -99 100 0
-1040 -106 107 0
-1040 -113 114 0
-1040 -190 191 0
-1040 -197 198 0
-1040 -204 205 0
-1046 -85 86 0
-1046 -92 93 0
-1046 -99 100 0
-1046 -106 107 0
-1046 -113 114 0
-1046 -190 191 0
-1046 -197 198 0
-1046 -204 205 0
-1172 -85 86 0
-1172 -92 93 0
-1172 -99 100 0
-1172 -106 107 0
-1172 -113 114 0
-1172 -190 191 0
-1172 -197 198 0
-1172 -204 205 0
-1178 -85 86 0
-1178 -92 93 0
-1178 -99 100 0
-1178 -106 107 0
-1178 -113 114 0
-1178 -190 191 0
-1178 -197 198 0
-1178 -204 205 0
-1184 -85 86 0
-1184 -92 93 0
-1184 -99 100 0
-1184 -106 107 0
-1184 -113 114 0
-1184 -190 191 0
-1184 -197 198 0
-1184 -204 205 0
-1190 -85 86 0
-1190 -92 93 0
-1190 -99 100 0
-1190 -106 107 0
-1190 -113 114 0
-1190 -190 191 0
-1190 -197 198 0
-1190 -204 205 0
-1196 -85 86 0
-1196 -92 93 0
-1196 -99 100 0
-1196 -106 107 0
-1196 -113 114 0
-1196 -190 191 0
-1196 -197 198 0
-1196 -204 205 0
-1202 -85 86 0
-1202 -92 93 0
-1202 -99 100 0
-1202 -106 107 0
-1202 -113 114 0
-1202 -190 191 0
-1202 -197 198 0
-1202 -204 205 0
-1208 -85 86 0
-1208 -92 93 0
-1208 -99 100 0
-1208 -106 107 0
-1208 -113 114 0
-1208 -190 191 0
-1208 -197 198 0
-1208 -204 205 0
-1214 -85 86 0
-1214 -92 93 0
-1214 -99 100 0
-1214 -106 107 0
-1214 -113 114 0
-1214 -190 191 0
-1214 -197 198 0
-1214 -204 205 0
-1220 -85 86 0
-1220 -92 93 0
-1220 -99 100 0
-1220 -106 107 0
-1220 -113 114 0
-1220 -190 191 0
-1220 -197 198 0
-1220 -204 205 0
-1226 -85 86 0
-1226 -92 93 0
-1226 -99 100 0
-1226 -106 107 0
-1226 -113 114 0
-1226 -190 191 0
-1226 -197 198 0
-1226 -204 205 0
-1232 -85 86 0
-1232 -92 93 0
-1232 -99 100 0
-1232 -106 107 0
-1232 -113 114 0
-1232 -190 191 0
-1232 -197 198 0
-1232 -204 205 0
-1238 -85 86 0
-1238 -92 93 0
-1238 -99 100 0
-1238 -106 107 0
-1238 -113 114 0
-1238 -190 191 0
-1238 -197 198 0
-1238 -204 205 0
-1244 -85 86 0
-1244 -92 93 0
-1244 -99 100 0
-1244 -106 107 0
-1244 -113 114 0
-1244 -190 191 0
-1244 -197 198 0
-1244 -204 205 0
-1250 -85 86 0
-1250 -92 93 0
-1250 -99 100 0
-1250 -106 107 0
-1250 -113 114 0
-1250 -190 191 0
-1250 -197 198 0
-1250 -204 205 0
-1256 -85 86 0
-1256 -92 93 0
-1256 -99 100 0
-1256 -106 107 0
-1256 -113 114 0
-1256 -190 191 0
-1256 -197 198 0
-1256 -204 205 0
-1262 -85 86 0
-1262 -92 93 0
-1262 -99 100 0
-1262 -106 107 0
-1262 -113 114 0
-1262 -190 191 0
-1262 -197 198 0
-1262 -204 205 0
-764 -120 121 0
-764 -127 128 0
-764 -134 135 0
-764 -141 142 0
-764 -211 212 0
-764 -218 219 0
-764 -225 226 0
-770 -120 121 0
-770 -127 128 0
-770 -134 135 0
-770 -141 142 0
-770 -211 212 0
-770 -218 219 0
-770 -225 226 0
-776 -120 121 0
-776 -127 128 0
-776 -134 135 0
-776 -141 142 0
-776 -211 212 0
-776 -218 219 0
-776 -225 226 0
-782 -120 121 0
-782 -127 128 0
-782 -134 135 0
-782 -141 142 0
-782 -211 212 0
-782 -218 219 0
-782 -225 226 0
-788 -120 121 0
-788 -127 128 0
-788 -134 135 0
-788 -141 142 0
-788 -211 212 0
-788 -218 219 0
-788 -225 226 0
-794 -120 121 0
-794 -127 128 0
-794 -134 135 0
-794 -141 142 0
-794 -211 212 0
-794 -218 219 0
-794 -225 226 0
-800 -120 121 0
-800 -127 128 0
-800 -134 135 0
-800 -141 142 0
-800 -211 212 0
-800 -218 219 0
-800 -225 226 0
-806 -120 121 0
-806 -127 128 0
-806 -134 135 0
-806 -141 142 0
-806 -211 212 0
-806 -218 219 0
-806 -225 226 0
-812 -120 121 0
-812 -127 128 0
-812 -134 135 0
-812 -141 142 0
-812 -211 212 0
-812 -218 219 0
-812 -225 226 0
-818 -120 121 0
-818 -127 128 0
-818 -134 135 0
-818 -141 142 0
-818 -211 212 0
-818 -218 219 0
-818 -225 226 0
-824 -120 121 0
-824 -127 128 0
-824 -134 135 0
-824 -141 142 0
-824 -211 212 0
-824 -218 219 0
-824 -225 226 0
-830 -120 121 0
-830 -127 128 0
-830 -134 135 0
-830 -141 142 0
-830 -211 212 0
-830 -218 219 0
-830 -225 226 0
-836 -120 121 0
-836 -127 128 0
-836 -134 135 0
-836 -141 142 0
-836 -211 212 0
-836 -218 219 0
-836 -225 226 0
-842 -120 121 0
-842 -127 128 0
-842 -134 135 0
-842 -141 142 0
-842 -211 212 0
-842 -218 219 0
-842 -225 226 0
-848 -120 121 0
-848 -127 128 0
-848 -134 135 0
-848 -141 142 0
-848 -211 212 0
-848 -218 219 0
-848 -225 226 0
-854 -120 121 0
-854 -127 128 0
-854 -134 135 0
-854 -141 142 0
-854 -211 212 0
-854 -218 219 0
-854 -225 226 0
-860 -120 121 0
-860 -127 128 0
-860 -134 135 0
-860 -141 142 0
-860 -211 212 0
-860 -218 219 0
-860 -225 226 0
-866 -120 121 0
-866 -127 128 0
-866 -134 135 0
-866 -141 142 0
-866 -211 212 0
-866 -218 219 0
-866 -225 226 0
-872 -120 121 0
-872 -127 128 0
-872 -134 135 0
-872 -141 142 0
-872 -211 212 0
-872 -218 219 0
-872 -225 226 0
-878 -120 121 0
-878 -127 128 0
-878 -134 135 0
-878 -141 142 0
-878 -211 212 0
-878 -218 219 0
-878 -225 226 0
-884 -120 121 0
-884 -127 128 0
-884 -134 135 0
-884 -141 142 0
-884 -211 212 0
-884 -218 219 0
-884 -225 226 0
-890 -120 121 0
-890 -127 128 0
-890 -134 135 0
-890 -141 142 0
-890 -211 212 0
-890 -218 219 0
-890 -225 226 0
-896 -120 121 0
-896 -127 128 0
-896 -134 135 0
-896 -141 142 0
-896 -211 212 0
-896 -218 219 0
-896 -225 226 0
-902 -120 121 0
-902 -127 128 0
-902 -134 135 0
-902 -141 142 0
-902 -211 212 0
-902 -218 219 0
-902 -225 226 0
-908 -120 121 0
-908 -127 128 0
-908 -134 135 0
-908 -141 142 0
-908 -211 212 0
-908 -218 219 0
-908 -225 226 0
-914 -120 121 0
-914 -127 128 0
-914 -134 135 0
-914 -141 142 0
-914 -211 212 0
-914 -218 219 0
-914 -225 226 0
-920 -120 121 0
-920 -127 128 0
-920 -134 135 0
-920 -141 142 0
-920 -211 212 0
-920 -218 219 0
-920 -225 226 0
-926 -120 121 0
-926 -127 128 0
-926 -134 135 0
-926 -141 142 0
-926 -211 212 0
-926 -218 219 0
-926 -225 226 0
-932 -120 121 0
-932 -127 128 0
-932 -134 135 0
-932 -141 142 0
-932 -211 212 0
-932 -218 219 0
-932 -225 226 0
-938 -120 121 0
-938 -127 128 0
-938 -134 135 0
-938 -141 142 0
-938 -211 212 0
-938 -218 219 0
-938 -225 226 0
-944 -120 121 0
-944 -127 128 0
-944 -134 135 0
-944 -141 142 0
-944 -211 212 0
-944 -218 219 0
-944 -225 226 0
-950 -120 121 0
-950 -127 128 0
-950 -134 135 0
-950 -141 142 0
-950 -211 212 0
-950 -218 219 0
-950 -225 226 0
-956 -120 121 0
-956 -127 128 0
-956 -134 135 0
-956 -141 142 0
-956 -211 212 0
-956 -218 219 0
-956 -225 226 0
-962 -120 121 0
-962 -127 128 0
-962 -134 135 0
-962 -141 142 0
-962 -211 212 0
-962 -218 219 0
-962 -225 226 0
-968 -120 121 0
-968 -127 128 0
-968 -134 135 0
-968 -141 142 0
-968 -211 212 0
-968 -218 219 0
-968 -225 226 0
-974 -120 121 0
-974 -127 128 0
-974 -134 135 0
-974 -141 142 0
-974 -211 212 0
-974 -218 219 0
-974 -225 226 0
-980 -120 121 0
-980 -127 128 0
-980 -134 135 0
-980 -141 142 0
-980 -211 212 0
-980 -218 219 0
-980 -225 226 0
-986 -120 121 0
-986 -127 128 0
-986 -134 135 0
-986 -141 142 0
-986 -211 212 0
-986 -218 219 0
-986 -225 226 0
-992 -120 121 0
-992 -127 128 0
-992 -134 135 0
-992 -141 142 0
-992 -211 212 0
-992 -218 219 0
-992 -225 226 0
-998 -120 121 0
-998 -127 128 0
-998 -134 135 0
-998 -141 142 0
-998 -211 212 0
-998 -218 219 0
-998 -225 226 0
-1004 -120 121 0
-1004 -127 128 0
-1004 -134 135 0
-1004 -141 142 0
-1004 -211 212 0
-1004 -218 219 0
-1004 -225 226 0
-1010 -120 121 0
-1010 -127 128 0
-1010 -134 135 0
-1010 -141 142 0
-1010 -211 212 0
-1010 -218 219 0
-1010 -225 226 0
-1016 -120 121 0
-1016 -127 128 0
-1016 -134 135 0
-1016 -141 142 0
-1016 -211 212 0
-1016 -218 219 0
-1016 -225 226 0
-1022 -120 121 0
-1022 -127 128 0
-1022 -134 135 0
-1022 -141 142 0
-1022 -211 212 0
-1022 -218 219 0
-1022 -225 226 0
-1028 -120 121 0
-1028 -127 128 0
-1028 -134 135 0
-1028 -141 142 0
-1028 -211 212 0
-1028 -218 219 0
-1028 -225 226 0
-1034 -120 121 0
-1034 -127 128 0
-1034 -134 135 0
-1034 -141 142 0
-1034 -211 212 0
-1034 -218 219 0
-1034 -225 226 0
-1040 -120 121 0
-1040 -127 128 0
-1040 -134 135 0
-1040 -141 142 0
-1040 -211 212 0
-1040 -218 219 0
-1040 -225 226 0
-1046 -120 121 0
-1046 -127 128 0
-1046 -134 135 0
-1046 -141 142 0
-1046 -211 212 0
-1046 -218 219 0
-1046 -225 226 0
-1052 -120 121 0
-1052 -127 128 0
-1052 -134 135 0
-1052 -141 142 0
-1052 -211 212 0
-1052 -218 219 0
-1052 -225 226 0
-1058 -120 121 0
-1058 -127 128 0
-1058 -134 135 0
-1058 -141 142 0
-1058 -211 212 0
-1058 -218 219 0
-1058 -225 226 0
-1064 -120 121 0
-1064 -127 128 0
-1064 -134 135 0
-1064 -141 142 0
-1064 -211 212 0
-1064 -218 219 0
-1064 -225 226 0
-1070 -120 121 0
-1070 -127 128 0
-1070 -134 135 0
-1070 -141 142 0
-1070 -211 212 0
-1070 -218 219 0
-1070 -225 226 0
-1076 -120 121 0
-1076 -127 128 0
-1076 -134 135 0
-1076 -141 142 0
-1076 -211 212 0
-1076 -218 219 0
-1076 -225 226 0
-1082 -120 121 0
-1082 -127 128 0
-1082 -134 135 0
-1082 -141 142 0
-1082 -211 212 0
-1082 -218 219 0
-1082 -225 226 0
-1088 -120 121 0
-1088 -127 128 0
-1088 -134 135 0
-1088 -141 142 0
-1088 -211 212 0
-1088 -218 219 0
-1088 -225 226 0
-1094 -120 121 0
-1094 -127 128 0
-1094 -134 135 0
-1094 -141 142 0
-1094 -211 212 0
-1094 -218 219 0
-1094 -225 226 0
-1100 -120 121 0
-1100 -127 128 0
-1100 -134 135 0
-1100 -141 142 0
-1100 -211 212 0
-1100 -218 219 0
-1100 -225 226 0
-1106 -120 121 0
-1106 -127 128 0
-1106 -134 135 0
-1106 -141 142 0
-1106 -211 212 0
-1106 -218 219 0
-1106 -225 226 0
-1112 -120 121 0
-1112 -127 128 0
-1112 -134 135 0
-1112 -141 142 0
-1112 -211 212 0
-1112 -218 219 0
-1112 -225 226 0
-1118 -120 121 0
-1118 -127 128 0
-1118 -134 135 0
-1118 -141 142 0
-1118 -211 212 0
-1118 -218 219 0
-1118 -225 226 0
-1124 -120 121 0
-1124 -127 128 0
-1124 -134 135 0
-1124 -141 142 0
-1124 -211 212 0
-1124 -218 219 0
-1124 -225 226 0
-1130 -120 121 0
-1130 -127 128 0
-1130 -134 135 0
-1130 -141 142 0
-1130 -211 212 0
-1130 -218 219 0
-1130 -225 226 0
-1136 -120 121 0
-1136 -127 128 0
-1136 -134 135 0
-1136 -141 142 0
-1136 -211 212 0
-1136 -218 219 0
-1136 -225 226 0
-1142 -120 121 0
-1142 -127 128 0
-1142 -134 135 0
-1142 -141 142 0
-1142 -211 212 0
-1142 -218 219 0
-1142 -225 226 0
-1148 -120 121 0
-1148 -127 128 0
-1148 -134 135 0
-1148 -141 142 0
-1148 -211 212 0
-1148 -218 219 0
-1148 -225 226 0
-1154 -120 121 0
-1154 -127 128 0
-1154 -134 135 0
-1154 -141 142 0
-1154 -211 212 0
-1154 -218 219 0
-1154 -225 226 0
-1160 -120 121 0
-1160 -127 128 0
-1160 -134 135 0
-1160 -141 142 0
-1160 -211 212 0
-1160 -218 219 0
-1160 -225 226 0
-1166 -120 121 0
-1166 -127 128 0
-1166 -134 135 0
-1166 -141 142 0
-1166 -211 212 0
-1166 -218 219 0
-1166 -225 226 0
-909 -2 3 0
-909 -9 10 0
-909 -16 17 0
-909 -23 24 0
-909 -30 31 0
-909 -37 38 0
-909 -149 150 0
-909 -156 157 0
-909 -163 164 0
-915 -2 3 0
-915 -9 10 0
-915 -16 17 0
-915 -23 24 0
-915 -30 31 0
-915 -37 38 0
-915 -149 150 0
-915 -156 157 0
-915 -163 164 0
-921 -2 3 0
-921 -9 10 0
-921 -16 17 0
-921 -23 24 0
-921 -30 31 0
-921 -37 38 0
-921 -149 150 0
-921 -156 157 0
-921 -163 164 0
-927 -2 3 0
-927 -9 10 0
-927 -16 17 0
-927 -23 24 0
-927 -30 31 0
-927 -37 38 0
-927 -149 150 0
-927 -156 157 0
-927 -163 164 0
-933 -2 3 0
-933 -9 10 0
-933 -16 17 0
-933 -23 24 0
-933 -30 31 0
-933 -37 38 0
-933 -149 150 0
-933 -156 157 0
-933 -163 164 0
-939 -2 3 0
-939 -9 10 0
-939 -16 17 0
-939 -23 24 0
-939 -30 31 0
-939 -37 38 0
-939 -149 150 0
-939 -156 157 0
-939 -163 164 0
-945 -2 3 0
-945 -9 10 0
-945 -16 17 0
-945 -23 24 0
-945 -30 31 0
-945 -37 38 0
-945 -149 150 0
-945 -156 157 0
-945 -163 164 0
-951 -2 3 0
-951 -9 10 0
-951 -16 17 0
-951 -23 24 0
-951 -30 31 0
-951 -37 38 0
-951 -149 150 0
-951 -156 157 0
-951 -163 164 0
-957 -2 3 0
-957 -9 10 0
-957 -16 17 0
-957 -23 24 0
-957 -30 31 0
-957 -37 38 0
-957 -149 150 0
-957 -156 157 0
-957 -163 164 0
-963 -2 3 0
-963 -9 10 0
-963 -16 17 0
-963 -23 24 0
-963 -30 31 0
-963 -37 38 0
-963 -149 150 0
-963 -156 157 0
-963 -163 164 0
-969 -2 3 0
-969 -9 10 0
-969 -16 17 0
-969 -23 24 0
-969 -30 31 0
-969 -37 38 0
-969 -149 150 0
-969 -156 157 0
-969 -163 164 0
-975 -2 3 0
-975 -9 10 0
-975 -16 17 0
-975 -23 24 0
-975 -30 31 0
-975 -37 38 0
-975 -149 150 0
-975 -156 157 0
-975 -163 164 0
-981 -2 3 0
-981 -9 10 0
-981 -16 17 0
-981 -23 24 0
-981 -30 31 0
-981 -37 38 0
-981 -149 150 0
-981 -156 157 0
-981 -163 164 0
-987 -2 3 0
-987 -9 10 0
-987 -16 17 0
-987 -23 24 0
-987 -30 31 0
-987 -37 38 0
-987 -149 150 0
-987 -156 157 0
-987 -163 164 0
-993 -2 3 0
-993 -9 10 0
-993 -16 17 0
-993 -23 24 0
-993 -30 31 0
-993 -37 38 0
-993 -149 150 0
-993 -156 157 0
-993 -163 164 0
-999 -2 3 0
-999 -9 10 0
-999 -16 17 0
-999 -23 24 0
-999 -30 31 0
-999 -37 38 0
-999 -149 150 0
-999 -156 157 0
-999 -163 164 0
-1005 -2 3 0
-1005 -9 10 0
-1005 -16 17 0
-1005 -23 24 0
-1005 -30 31 0
-1005 -37 38 0
-1005 -149 150 0
-1005 -156 157 0
-1005 -163 164 0
-1011 -2 3 0
-1011 -9 10 0
-1011 -16 17 0
-1011 -23 24 0
-1011 -30 31 0
-1011 -37 38 0
-1011 -149 150 0
-1011 -156 157 0
-1011 -163 164 0
-1017 -2 3 0
-1017 -9 10 0
-1017 -16 17 0
-1017 -23 24 0
-1017 -30 31 0
-1017 -37 38 0
-1017 -149 150 0
-1017 -156 157 0
-1017 -163 164 0
-1023 -2 3 0
-1023 -9 10 0
-1023 -16 17 0
-1023 -23 24 0
-1023 -30 31 0
-1023 -37 38 0
-1023 -149 150 0
-1023 -156 157 0
-1023 -163 164 0
-1029 -2 3 0
-1029 -9 10 0
-1029 -16 17 0
-1029 -23 24 0
-1029 -30 31 0
-1029 -37 38 0
-1029 -149 150 0
-1029 -156 157 0
-1029 -163 164 0
-1035 -2 3 0
-1035 -9 10 0
-1035 -16 17 0
-1035 -23 24 0
-1035 -30 31 0
-1035 -37 38 0
-1035 -149 150 0
-1035 -156 157 0
-1035 -163 164 0
-1041 -2 3 0
-1041 -9 10 0
-1041 -16 17 0
-1041 -23 24 0
-1041 -30 31 0
-1041 -37 38 0
-1041 -149 150 0
-1041 -156 157 0
-1041 -163 164 0
-1047 -2 3 0
-1047 -9 10 0
-1047 -16 17 0
-1047 -23 24 0
-1047 -30 31 0
-1047 -37 38 0
-1047 -149 150 0
-1047 -156 157 0
-1047 -163 164 0
-1053 -2 3 0
-1053 -9 10 0
-1053 -16 17 0
-1053 -23 24 0
-1053 -30 31 0
-1053 -37 38 0
-1053 -149 150 0
-1053 -156 157 0
-1053 -163 164 0
-1059 -2 3 0
-1059 -9 10 0
-1059 -16 17 0
-1059 -23 24 0
-1059 -30 31 0
-1059 -37 38 0
-1059 -149 150 0
-1059 -156 157 0
-1059 -163 164 0
-1065 -2 3 0
-1065 -9 10 0
-1065 -16 17 0
-1065 -23 24 0
-1065 -30 31 0
-1065 -37 38 0
-1065 -149 150 0
-1065 -156 157 0
-1065 -163 164 0
-1071 -2 3 0
-1071 -9 10 0
-1071 -16 17 0
-1071 -23 24 0
-1071 -30 31 0
-1071 -37 38 0
-1071 -149 150 0
-1071 -156 157 0
-1071 -163 164 0
-1077 -2 3 0
-1077 -9 10 0
-1077 -16 17 0
-1077 -23 24 0
-1077 -30 31 0
-1077 -37 38 0
-1077 -149 150 0
-1077 -156 157 0
-1077 -163 164 0
-1083 -2 3 0
-1083 -9 10 0
-1083 -16 17 0
-1083 -23 24 0
-1083 -30 31 0
-1083 -37 38 0
-1083 -149 150 0
-1083 -156 157 0
-1083 -163 164 0
-1089 -2 3 0
-1089 -9 10 0
-1089 -16 17 0
-1089 -23 24 0
-1089 -30 31 0
-1089 -37 38 0
-1089 -149 150 0
-1089 -156 157 0
-1089 -163 164 0
-1095 -2 3 0
-1095 -9 10 0
-1095 -16 17 0
-1095 -23 24 0
-1095 -30 31 0
-1095 -37 38 0
-1095 -149 150 0
-1095 -156 157 0
-1095 -163 164 0
-1101 -2 3 0
-1101 -9 10 0
-1101 -16 17 0
-1101 -23 24 0
-1101 -30 31 0
-1101 -37 38 0
-1101 -149 150 0
-1101 -156 157 0
-1101 -163 164 0
-1107 -2 3 0
-1107 -9 10 0
-1107 -16 17 0
-1107 -23 24 0
-1107 -30 31 0
-1107 -37 38 0
-1107 -149 150 0
-1107 -156 157 0
-1107 -163 164 0
-1113 -2 3 0
-1113 -9 10 0
-1113 -16 17 0
-1113 -23 24 0
-1113 -30 31 0
-1113 -37 38 0
-1113 -149 150 0
-1113 -156 157 0
-1113 -163 164 0
-1119 -2 3 0
-1119 -9 10 0
-1119 -16 17 0
-1119 -23 24 0
-1119 -30 31 0
-1119 -37 38 0
-1119 -149 150 0
-1119 -156 157 0
-1119 -163 164 0
-1125 -2 3 0
-1125 -9 10 0
-1125 -16 17 0
-1125 -23 24 0
-1125 -30 31 0
-1125 -37 38 0
-1125 -149 150 0
-1125 -156 157 0
-1125 -163 164 0
-1131 -2 3 0
-1131 -9 10 0
-1131 -16 17 0
-1131 -23 24 0
-1131 -30 31 0
-1131 -37 38 0
-1131 -149 150 0
-1131 -156 157 0
-1131 -163 164 0
-1137 -2 3 0
-1137 -9 10 0
-1137 -16 17 0
-1137 -23 24 0
-1137 -30 31 0
-1137 -37 38 0
-1137 -149 150 0
-1137 -156 157 0
-1137 -163 164 0
-1143 -2 3 0
-1143 -9 10 0
-1143 -16 17 0
-1143 -23 24 0
-1143 -30 31 0
-1143 -37 38 0
-1143 -149 150 0
-1143 -156 157 0
-1143 -163 164 0
-1149 -2 3 0
-1149 -9 10 0
-1149 -16 17 0
-1149 -23 24 0
-1149 -30 31 0
-1149 -37 38 0
-1149 -149 150 0
-1149 -156 157 0
-1149 -163 164 0
-1155 -2 3 0
-1155 -9 10 0
-1155 -16 17 0
-1155 -23 24 0
-1155 -30 31 0
-1155 -37 38 0
-1155 -149 150 0
-1155 -156 157 0
-1155 -163 164 0
-1161 -2 3 0
-1161 -9 10 0
-1161 -16 17 0
-1161 -23 24 0
-1161 -30 31 0
-1161 -37 38 0
-1161 -149 150 0
-1161 -156 157 0
-1161 -163 164 0
-1167 -2 3 0
-1167 -9 10 0
-1167 -16 17 0
-1167 -23 24 0
-1167 -30 31 0
-1167 -37 38 0
-1167 -149 150 0
-1167 -156 157 0
-1167 -163 164 0
-1173 -2 3 0
-1173 -9 10 0
-1173 -16 17 0
-1173 -23 24 0
-1173 -30 31 0
-1173 -37 38 0
-1173 -149 150 0
-1173 -156 157 0
-1173 -163 164 0
-1179 -2 3 0
-1179 -9 10 0
-1179 -16 17 0
-1179 -23 24 0
-1179 -30 31 0
-1179 -37 38 0
-1179 -149 150 0
-1179 -156 157 0
-1179 -163 164 0
-1185 -2 3 0
-1185 -9 10 0
-1185 -16 17 0
-1185 -23 24 0
-1185 -30 31 0
-1185 -37 38 0
-1185 -149 150 0
-1185 -156 157 0
-1185 -163 164 0
-1191 -2 3 0
-1191 -9 10 0
-1191 -16 17 0
-1191 -23 24 0
-1191 -30 31 0
-1191 -37 38 0
-1191 -149 150 0
-1191 -156 157 0
-1191 -163 164 0
-1197 -2 3 0
-1197 -9 10 0
-1197 -16 17 0
-1197 -23 24 0
-1197 -30 31 0
-1197 -37 38 0
-1197 -149 150 0
-1197 -156 157 0
-1197 -163 164 0
-1203 -2 3 0
-1203 -9 10 0
-1203 -16 17 0
-1203 -23 24 0
-1203 -30 31 0
-1203 -37 38 0
-1203 -149 150 0
-1203 -156 157 0
-1203 -163 164 0
-1209 -2 3 0
-1209 -9 10 0
-1209 -16 17 0
-1209 -23 24 0
-1209 -30 31 0
-1209 -37 38 0
-1209 -149 150 0
-1209 -156 157 0
-1209 -163 164 0
-1215 -2 3 0
-1215 -9 10 0
-1215 -16 17 0
-1215 -23 24 0
-1215 -30 31 0
-1215 -37 38 0
-1215 -149 150 0
-1215 -156 157 0
-1215 -163 164 0
-1221 -2 3 0
-1221 -9 10 0
-1221 -16 17 0
-1221 -23 24 0
-1221 -30 31 0
-1221 -37 38 0
-1221 -149 150 0
-1221 -156 157 0
-1221 -163 164 0
-1227 -2 3 0
-1227 -9 10 0
-1227 -16 17 0
-1227 -23 24 0
-1227 -30 31 0
-1227 -37 38 0
-1227 -149 150 0
-1227 -156 157 0
-1227 -163 164 0
-1233 -2 3 0
-1233 -9 10 0
-1233 -16 17 0
-1233 -23 24 0
-1233 -30 31 0
-1233 -37 38 0
-1233 -149 150 0
-1233 -156 157 0
-1233 -163 164 0
-1239 -2 3 0
-1239 -9 10 0
-1239 -16 17 0
-1239 -23 24 0
-1239 -30 31 0
-1239 -37 38 0
-1239 -149 150 0
-1239 -156 157 0
-1239 -163 164 0
-1245 -2 3 0
-1245 -9 10 0
-1245 -16 17 0
-1245 -23 24 0
-1245 -30 31 0
-1245 -37 38 0
-1245 -149 150 0
-1245 -156 157 0
-1245 -163 164 0
-1251 -2 3 0
-1251 -9 10 0
-1251 -16 17 0
-1251 -23 24 0
-1251 -30 31 0
-1251 -37 38 0
-1251 -149 150 0
-1251 -156 157 0
-1251 -163 164 0
-1257 -2 3 0
-1257 -9 10 0
-1257 -16 17 0
-1257 -23 24 0
-1257 -30 31 0
-1257 -37 38 0
-1257 -149 150 0
-1257 -156 157 0
-1257 -163 164 0
-1263 -2 3 0
-1263 -9 10 0
-1263 -16 17 0
-1263 -23 24 0
-1263 -30 31 0
-1263 -37 38 0
-1263 -149 150 0
-1263 -156 157 0
-1263 -163 164 0
-765 -44 45 0
-765 -51 52 0
-765 -58 59 0
-765 -65 66 0
-765 -72 73 0
-765 -79 80 0
-765 -170 171 0
-765 -177 178 0
-765 -184 185 0
-771 -44 45 0
-771 -51 52 0
-771 -58 59 0
-771 -65 66 0
-771 -72 73 0
-771 -79 80 0
-771 -170 171 0
-771 -177 178 0
-771 -184 185 0
-777 -44 45 0
-777 -51 52 0
-777 -58 59 0
-777 -65 66 0
-777 -72 73 0
-777 -79 80 0
-777 -170 171 0
-777 -177 178 0
-777 -184 185 0
-783 -44 45 0
-783 -51 52 0
-783 -58 59 0
-783 -65 66 0
-783 -72 73 0
-783 -79 80 0
-783 -170 171 0
-783 -177 178 0
-783 -184 185 0
-789 -44 45 0
-789 -51 52 0
-789 -58 59 0
-789 -65 66 0
-789 -72 73 0
-789 -79 80 0
-789 -170 171 0
-789 -177 178 0
-789 -184 185 0
-795 -44 45 0
-795 -51 52 0
-795 -58 59 0
-795 -65 66 0
-795 -72 73 0
-795 -79 80 0
-795 -170 171 0
-795 -177 178 0
-795 -184 185 0
-801 -44 45 0
-801 -51 52 0
-801 -58 59 0
-801 -65 66 0
-801 -72 73 0
-801 -79 80 0
-801 -170 171 0
-801 -177 178 0
-801 -184 185 0
-807 -44 45 0
-807 -51 52 0
-807 -58 59 0
-807 -65 66 0
-807 -72 73 0
-807 -79 80 0
-807 -170 171 0
-807 -177 178 0
-807 -184 185 0
-813 -44 45 0
-813 -51 52 0
-813 -58 59 0
-813 -65 66 0
-813 -72 73 0
-813 -79 80 0
-813 -170 171 0
-813 -177 178 0
-813 -184 185 0
-819 -44 45 0
-819 -51 52 0
-819 -58 59 0
-819 -65 66 0
-819 -72 73 0
-819 -79 80 0
-819 -170 171 0
-819 -177 178 0
-819 -184 185 0
-825 -44 45 0
-825 -51 52 0
-825 -58 59 0
-825 -65 66 0
-825 -72 73 0
-825 -79 80 0
-825 -170 171 0
-825 -177 178 0
-825 -184 185 0
-831 -44 45 0
-831 -51 52 0
-831 -58 59 0
-831 -65 66 0
-831 -72 73 0
-831 -79 80 0
-831 -170 171 0
-831 -177 178 0
-831 -184 185 0
-837 -44 45 0
-837 -51 52 0
-837 -58 59 0
-837 -65 66 0
-837 -72 73 0
-837 -79 80 0
-837 -170 171 0
-837 -177 178 0
-837 -184 185 0
-843 -44 45 0
-843 -51 52 0
-843 -58 59 0
-843 -65 66 0
-843 -72 73 0
-843 -79 80 0
-843 -170 171 0
-843 -177 178 0
-843 -184 185 0
-849 -44 45 0
-849 -51 52 0
-849 -58 59 0
-849 -65 66 0
-849 -72 73 0
-849 -79 80 0
-849 -170 171 0
-849 -177 178 0
-849 -184 185 0
-855 -44 45 0
-855 -51 52 0
-855 -58 59 0
-855 -65 66 0
-855 -72 73 0
-855 -79 80 0
-855 -170 171 0
-855 -177 178 0
-855 -184 185 0
-861 -44 45 0
-861 -51 52 0
-861 -58 59 0
-861 -65 66 0
-861 -72 73 0
-861 -79 80 0
-861 -170 171 0
-861 -177 178 0
-861 -184 185 0
-867 -44 45 0
-867 -51 52 0
-867 -58 59 0
-867 -65 66 0
-867 -72 73 0
-867 -79 80 0
-867 -170 171 0
-867 -177 178 0
-867 -184 185 0
-873 -44 45 0
-873 -51 52 0
-873 -58 59 0
-873 -65 66 0
-873 -72 73 0
-873 -79 80 0
-873 -170 171 0
-873 -177 178 0
-873 -184 185 0
-879 -44 45 0
-879 -51 52 0
-879 -58 59 0
-879 -65 66 0
-879 -72 73 0
-879 -79 80 0
-879 -170 171 0
-879 -177 178 0
-879 -184 185 0
-885 -44 45 0
-885 -51 52 0
-885 -58 59 0
-885 -65 66 0
-885 -72 73 0
-885 -79 80 0
-885 -170 171 0
-885 -177 178 0
-885 -184 185 0
-891 -44 45 0
-891 -51 52 0
-891 -58 59 0
-891 -65 66 0
-891 -72 73 0
-891 -79 80 0
-891 -170 171 0
-891 -177 178 0
-891 -184 185 0
-897 -44 45 0
-897 -51 52 0
-897 -58 59 0
-897 -65 66 0
-897 -72 73 0
-897 -79 80 0
-897 -170 171 0
-897 -177 178 0
-897 -184 185 0
-903 -44 45 0
-903 -51 52 0
-903 -58 59 0
-903 -65 66 0
-903 -72 73 0
-903 -79 80 0
-903 -170 171 0
-903 -177 178 0
-903 -184 185 0
-1053 -44 45 0
-1053 -51 52 0
-1053 -58 59 0
-1053 -65 66 0
-1053 -72 73 0
-1053 -79 80 0
-1053 -170 171 0
-1053 -177 178 0
-1053 -184 185 0
-1059 -44 45 0
-1059 -51 52 0
-1059 -58 59 0
-1059 -65 66 0
-1059 -72 73 0
-1059 -79 80 0
-1059 -170 171 0
-1059 -177 178 0
-1059 -184 185 0
-1065 -44 45 0
-1065 -51 52 0
-1065 -58 59 0
-1065 -65 66 0
-1065 -72 73 0
-1065 -79 80 0
-1065 -170 171 0
-1065 -177 178 0
-1065 -184 185 0
-1071 -44 45 0
-1071 -51 52 0
-1071 -58 59 0
-1071 -65 66 0
-1071 -72 73 0
-1071 -79 80 0
-1071 -170 171 0
-1071 -177 178 0
-1071 -184 185 0
-1077 -44 45 0
-1077 -51 52 0
-1077 -58 59 0
-1077 -65 66 0
-1077 -72 73 0
-1077 -79 80 0
-1077 -170 171 0
-1077 -177 178 0
-1077 -184 185 0
-1083 -44 45 0
-1083 -51 52 0
-1083 -58 59 0
-1083 -65 66 0
-1083 -72 73 0
-1083 -79 80 0
-1083 -170 171 0
-1083 -177 178 0
-1083 -184 185 0
-1089 -44 45 0
-1089 -51 52 0
-1089 -58 59 0
-1089 -65 66 0
-1089 -72 73 0
-1089 -79 80 0
-1089 -170 171 0
-1089 -177 178 0
-1089 -184 185 0
-1095 -44 45 0
-1095 -51 52 0
-1095 -58 59 0
-1095 -65 66 0
-1095 -72 73 0
-1095 -79 80 0
-1095 -170 171 0
-1095 -177 178 0
-1095 -184 185 0
-1101 -44 45 0
-1101 -51 52 0
-1101 -58 59 0
-1101 -65 66 0
-1101 -72 73 0
-1101 -79 80 0
-1101 -170 171 0
-1101 -177 178 0
-1101 -184 185 0
-1107 -44 45 0
-1107 -51 52 0
-1107 -58 59 0
-1107 -65 66 0
-1107 -72 73 0
-1107 -79 80 0
-1107 -170 171 0
-1107 -177 178 0
-1107 -184 185 0
-1113 -44 45 0
-1113 -51 52 0
-1113 -58 59 0
-1113 -65 66 0
-1113 -72 73 0
-1113 -79 80 0
-1113 -170 171 0
-1113 -177 178 0
-1113 -184 185 0
-1119 -44 45 0
-1119 -51 52 0
-1119 -58 59 0
-1119 -65 66 0
-1119 -72 73 0
-1119 -79 80 0
-1119 -170 171 0
-1119 -177 178 0
-1119 -184 185 0
-1125 -44 45 0
-1125 -51 52 0
-1125 -58 59 0
-1125 -65 66 0
-1125 -72 73 0
-1125 -79 80 0
-1125 -170 171 0
-1125 -177 178 0
-1125 -184 185 0
-1131 -44 45 0
-1131 -51 52 0
-1131 -58 59 0
-1131 -65 66 0
-1131 -72 73 0
-1131 -79 80 0
-1131 -170 171 0
-1131 -177 178 0
-1131 -184 185 0
-1137 -44 45 0
-1137 -51 52 0
-1137 -58 59 0
-1137 -65 66 0
-1137 -72 73 0
-1137 -79 80 0
-1137 -170 171 0
-1137 -177 178 0
-1137 -184 185 0
-1143 -44 45 0
-1143 -51 52 0
-1143 -58 59 0
-1143 -65 66 0
-1143 -72 73 0
-1143 -79 80 0
-1143 -170 171 0
-1143 -177 178 0
-1143 -184 185 0
-1149 -44 45 0
-1149 -51 52 0
-1149 -58 59 0
-1149 -65 66 0
-1149 -72 73 0
-1149 -79 80 0
-1149 -170 171 0
-1149 -177 178 0
-1149 -184 185 0
-1155 -44 45 0
-1155 -51 52 0
-1155 -58 59 0
-1155 -65 66 0
-1155 -72 73 0
-1155 -79 80 0
-1155 -170 171 0
-1155 -177 178 0
-1155 -184 185 0
-1161 -44 45 0
-1161 -51 52 0
-1161 -58 59 0
-1161 -65 66 0
-1161 -72 73 0
-1161 -79 80 0
-1161 -170 171 0
-1161 -177 178 0
-1161 -184 185 0
-1167 -44 45 0
-1167 -51 52 0
-1167 -58 59 0
-1167 -65 66 0
-1167 -72 73 0
-1167 -79 80 0
-1167 -170 171 0
-1167 -177 178 0
-1167 -184 185 0
-1173 -44 45 0
-1173 -51 52 0
-1173 -58 59 0
-1173 -65 66 0
-1173 -72 73 0
-1173 -79 80 0
-1173 -170 171 0
-1173 -177 178 0
-1173 -184 185 0
-1179 -44 45 0
-1179 -51 52 0
-1179 -58 59 0
-1179 -65 66 0
-1179 -72 73 0
-1179 -79 80 0
-1179 -170 171 0
-1179 -177 178 0
-1179 -184 185 0
-1185 -44 45 0
-1185 -51 52 0
-1185 -58 59 0
-1185 -65 66 0
-1185 -72 73 0
-1185 -79 80 0
-1185 -170 171 0
-1185 -177 178 0
-1185 -184 185 0
-1191 -44 45 0
-1191 -51 52 0
-1191 -58 59 0
-1191 -65 66 0
-1191 -72 73 0
-1191 -79 80 0
-1191 -170 171 0
-1191 -177 178 0
-1191 -184 185 0
-1197 -44 45 0
-1197 -51 52 0
-1197 -58 59 0
-1197 -65 66 0
-1197 -72 73 0
-1197 -79 80 0
-1197 -170 171 0
-1197 -177 178 0
-1197 -184 185 0
-1203 -44 45 0
-1203 -51 52 0
-1203 -58 59 0
-1203 -65 66 0
-1203 -72 73 0
-1203 -79 80 0
-1203 -170 171 0
-1203 -177 178 0
-1203 -184 185 0
-1209 -44 45 0
-1209 -51 52 0
-1209 -58 59 0
-1209 -65 66 0
-1209 -72 73 0
-1209 -79 80 0
-1209 -170 171 0
-1209 -177 178 0
-1209 -184 185 0
-1215 -44 45 0
-1215 -51 52 0
-1215 -58 59 0
-1215 -65 66 0
-1215 -72 73 0
-1215 -79 80 0
-1215 -170 171 0
-1215 -177 178 0
-1215 -184 185 0
-1221 -44 45 0
-1221 -51 52 0
-1221 -58 59 0
-1221 -65 66 0
-1221 -72 73 0
-1221 -79 80 0
-1221 -170 171 0
-1221 -177 178 0
-1221 -184 185 0
-1227 -44 45 0
-1227 -51 52 0
-1227 -58 59 0
-1227 -65 66 0
-1227 -72 73 0
-1227 -79 80 0
-1227 -170 171 0
-1227 -177 178 0
-1227 -184 185 0
-1233 -44 45 0
-1233 -51 52 0
-1233 -58 59 0
-1233 -65 66 0
-1233 -72 73 0
-1233 -79 80 0
-1233 -170 171 0
-1233 -177 178 0
-1233 -184 185 0
-1239 -44 45 0
-1239 -51 52 0
-1239 -58 59 0
-1239 -65 66 0
-1239 -72 73 0
-1239 -79 80 0
-1239 -170 171 0
-1239 -177 178 0
-1239 -184 185 0
-1245 -44 45 0
-1245 -51 52 0
-1245 -58 59 0
-1245 -65 66 0
-1245 -72 73 0
-1245 -79 80 0
-1245 -170 171 0
-1245 -177 178 0
-1245 -184 185 0
-1251 -44 45 0
-1251 -51 52 0
-1251 -58 59 0
-1251 -65 66 0
-1251 -72 73 0
-1251 -79 80 0
-1251 -170 171 0
-1251 -177 178 0
-1251 -184 185 0
-1257 -44 45 0
-1257 -51 52 0
-1257 -58 59 0
-1257 -65 66 0
-1257 -72 73 0
-1257 -79 80 0
-1257 -170 171 0
-1257 -177 178 0
-1257 -184 185 0
-1263 -44 45 0
-1263 -51 52 0
-1263 -58 59 0
-1263 -65 66 0
-1263 -72 73 0
-1263 -79 80 0
-1263 -170 171 0
-1263 -177 178 0
-1263 -184 185 0
-765 -86 87 0
-765 -93 94 0
-765 -100 101 0
-765 -107 108 0
-765 -114 115 0
-765 -191 192 0
-765 -198 199 0
-765 -205 206 0
-771 -86 87 0
-771 -93 94 0
-771 -100 101 0
-771 -107 108 0
-771 -114 115 0
-771 -191 192 0
-771 -198 199 0
-771 -205 206 0
-777 -86 87 0
-777 -93 94 0
-777 -100 101 0
-777 -107 108 0
-777 -114 115 0
-777 -191 192 0
-777 -198 199 0
-777 -205 206 0
-783 -86 87 0
-783 -93 94 0
-783 -100 101 0
-783 -107 108 0
-783 -114 115 0
-783 -191 192 0
-783 -198 199 0
-783 -205 206 0
-789 -86 87 0
-789 -93 94 0
-789 -100 101 0
-789 -107 108 0
-789 -114 115 0
-789 -191 192 0
-789 -198 199 0
-789 -205 206 0
-795 -86 87 0
-795 -93 94 0
-795 -100 101 0
-795 -107 108 0
-795 -114 115 0
-795 -191 192 0
-795 -198 199 0
-795 -205 206 0
-801 -86 87 0
-801 -93 94 0
-801 -100 101 0
-801 -107 108 0
-801 -114 115 0
-801 -191 192 0
-801 -198 199 0
-801 -205 206 0
-807 -86 87 0
-807 -93 94 0
-807 -100 101 0
-807 -107 108 0
-807 -114 115 0
-807 -191 192 0
-807 -198 199 0
-807 -205 206 0
-813 -86 87 0
-813 -93 94 0
-813 -100 101 0
-813 -107 108 0
-813 -114 115 0
-813 -191 192 0
-813 -198 199 0
-813 -205 206 0
-819 -86 87 0
-819 -93 94 0
-819 -100 101 0
-819 -107 108 0
-819 -114 115 0
-819 -191 192 0
-819 -198 199 0
-819 -205 206 0
-825 -86 87 0
-825 -93 94 0
-825 -100 101 0
-825 -107 108 0
-825 -114 115 0
-825 -191 192 0
-825 -198 199 0
-825 -205 206 0
-831 -86 87 0
-831 -93 94 0
-831 -100 101 0
-831 -107 108 0
-831 -114 115 0
-831 -191 192 0
-831 -198 199 0
-831 -205 206 0
-837 -86 87 0
-837 -93 94 0
-837 -100 101 0
-837 -107 108 0
-837 -114 115 0
-837 -191 192 0
-837 -198 199 0
-837 -205 206 0
-843 -86 87 0
-843 -93 94 0
-843 -100 101 0
-843 -107 108 0
-843 -114 115 0
-843 -191 192 0
-843 -198 199 0
-843 -205 206 0
-849 -86 87 0
-849 -93 94 0
-849 -100 101 0
-849 -107 108 0
-849 -114 115 0
-849 -191 192 0
-849 -198 199 0
-849 -205 206 0
-855 -86 87 0
-855 -93 94 0
-855 -100 101 0
-855 -107 108 0
-855 -114 115 0
-855 -191 192 0
-855 -198 199 0
-855 -205 206 0
-861 -86 87 0
-861 -93 94 0
-861 -100 101 0
-861 -107 108 0
-861 -114 115 0
-861 -191 192 0
-861 -198 199 0
-861 -205 206 0
-867 -86 87 0
-867 -93 94 0
-867 -100 101 0
-867 -107 108 0
-867 -114 115 0
-867 -191 192 0
-867 -198 199 0
-867 -205 206 0
-873 -86 87 0
-873 -93 94 0
-873 -100 101 0
-873 -107 108 0
-873 -114 115 0
-873 -191 192 0
-873 -198 199 0
-873 -205 206 0
-879 -86 87 0
-879 -93 94 0
-879 -100 101 0
-879 -107 108 0
-879 -114 115 0
-879 -191 192 0
-879 -198 199 0
-879 -205 206 0
-885 -86 87 0
-885 -93 94 0
-885 -100 101 0
-885 -107 108 0
-885 -114 115 0
-885 -191 192 0
-885 -198 199 0
-885 -205 206 0
-891 -86 87 0
-891 -93 94 0
-891 -100 101 0
-891 -107 108 0
-891 -114 115 0
-891 -191 192 0
-891 -198 199 0
-891 -205 206 0
-897 -86 87 0
-897 -93 94 0
-897 -100 101 0
-897 -107 108 0
-897 -114 115 0
-897 -191 192 0
-897 -198 199 0
-897 -205 206 0
-903 -86 87 0
-903 -93 94 0
-903 -100 101 0
-903 -107 108 0
-903 -114 115 0
-903 -191 192 0
-903 -198 199 0
-903 -205 206 0
-909 -86 87 0
-909 -93 94 0
-909 -100 101 0
-909 -107 108 0
-909 -114 115 0
-909 -191 192 0
-909 -198 199 0
-909 -205 206 0
-915 -86 87 0
-915 -93 94 0
-915 -100 101 0
-915 -107 108 0
-915 -114 115 0
-915 -191 192 0
-915 -198 199 0
-915 -205 206 0
-921 -86 87 0
-921 -93 94 0
-921 -100 101 0
-921 -107 108 0
-921 -114 115 0
-921 -191 192 0
-921 -198 199 0
-921 -205 206 0
-927 -86 87 0
-927 -93 94 0
-927 -100 101 0
-927 -107 108 0
-927 -114 115 0
-927 -191 192 0
-927 -198 199 0
-927 -205 206 0
-933 -86 87 0
-933 -93 94 0
-933 -100 101 0
-933 -107 108 0
-933 -114 115 0
-933 -191 192 0
-933 -198 199 0
-933 -205 206 0
-939 -86 87 0
-939 -93 94 0
-939 -100 101 0
-939 -107 108 0
-939 -114 115 0
-939 -191 192 0
-939 -198 199 0
-939 -205 206 0
-945 -86 87 0
-945 -93 94 0
-945 -100 101 0
-945 -107 108 0
-945 -114 115 0
-945 -191 192 0
-945 -198 199 0
-945 -205 206 0
-951 -86 87 0
-951 -93 94 0
-951 -100 101 0
-951 -107 108 0
-951 -114 115 0
-951 -191 192 0
-951 -198 199 0
-951 -205 206 0
-957 -86 87 0
-957 -93 94 0
-957 -100 101 0
-957 -107 108 0
-957 -114 115 0
-957 -191 192 0
-957 -198 199 0
-957 -205 206 0
-963 -86 87 0
-963 -93 94 0
-963 -100 101 0
-963 -107 108 0
-963 -114 115 0
-963 -191 192 0
-963 -198 199 0
-963 -205 206 0
-969 -86 87 0
-969 -93 94 0
-969 -100 101 0
-969 -107 108 0
-969 -114 115 0
-969 -191 192 0
-969 -198 199 0
-969 -205 206 0
-975 -86 87 0
-975 -93 94 0
-975 -100 101 0
-975 -107 108 0
-975 -114 115 0
-975 -191 192 0
-975 -198 199 0
-975 -205 206 0
-981 -86 87 0
-981 -93 94 0
-981 -100 101 0
-981 -107 108 0
-981 -114 115 0
-981 -191 192 0
-981 -198 199 0
-981 -205 206 0
-987 -86 87 0
-987 -93 94 0
-987 -100 101 0
-987 -107 108 0
-987 -114 115 0
-987 -191 192 0
-987 -198 199 0
-987 -205 206 0
-993 -86 87 0
-993 -93 94 0
-993 -100 101 0
-993 -107 108 0
-993 -114 115 0
-993 -191 192 0
-993 -198 199 0
-993 -205 206 0
-999 -86 87 0
-999 -93 94 0
-999 -100 101 0
-999 -107 108 0
-999 -114 115 0
-999 -191 192 0
-999 -198 199 0
-999 -205 206 0
-1005 -86 87 0
-1005 -93 94 0
-1005 -100 101 0
-1005 -107 108 0
-1005 -114 115 0
-1005 -191 192 0
-1005 -198 199 0
-1005 -205 206 0
-1011 -86 87 0
-1011 -93 94 0
-1011 -100 101 0
-1011 -107 108 0
-1011 -114 115 0
-1011 -191 192 0
-1011 -198 199 0
-1011 -205 206 0
-1017 -86 87 0
-1017 -93 94 0
-1017 -100 101 0
-1017 -107 108 0
-1017 -114 115 0
-1017 -191 192 0
-1017 -198 199 0
-1017 -205 206 0
-1023 -86 87 0
-1023 -93 94 0
-1023 -100 101 0
-1023 -107 108 0
-1023 -114 115 0
-1023 -191 192 0
-1023 -198 199 0
-1023 -205 206 0
-1029 -86 87 0
-1029 -93 94 0
-1029 -100 101 0
-1029 -107 108 0
-1029 -114 115 0
-1029 -191 192 0
-1029 -198 199 0
-1029 -205 206 0
-1035 -86 87 0
-1035 -93 94 0
-1035 -100 101 0
-1035 -107 108 0
-1035 -114 115 0
-1035 -191 192 0
-1035 -198 199 0
-1035 -205 206 0
-1041 -86 87 0
-1041 -93 94 0
-1041 -100 101 0
-1041 -107 108 0
-1041 -114 115 0
-1041 -191 192 0
-1041 -198 199 0
-1041 -205 206 0
-1047 -86 87 0
-1047 -93 94 0
-1047 -100 101 0
-1047 -107 108 0
-1047 -114 115 0
-1047 -191 192 0
-1047 -198 199 0
-1047 -205 206 0
-1173 -86 87 0
-1173 -93 94 0
-1173 -100 101 0
-1173 -107 108 0
-1173 -114 115 0
-1173 -191 192 0
-1173 -198 199 0
-1173 -205 206 0
-1179 -86 87 0
-1179 -93 94 0
-1179 -100 101 0
-1179 -107 108 0
-1179 -114 115 0
-1179 -191 192 0
-1179 -198 199 0
-1179 -205 206 0
-1185 -86 87 0
-1185 -93 94 0
-1185 -100 101 0
-1185 -107 108 0
-1185 -114 115 0
-1185 -191 192 0
-1185 -198 199 0
-1185 -205 206 0
-1191 -86 87 0
-1191 -93 94 0
-1191 -100 101 0
-1191 -107 108 0
-1191 -114 115 0
-1191 -191 192 0
-1191 -198 199 0
-1191 -205 206 0
-1197 -86 87 0
-1197 -93 94 0
-1197 -100 101 0
-1197 -107 108 0
-1197 -114 115 0
-1197 -191 192 0
-1197 -198 199 0
-1197 -205 206 0
-1203 -86 87 0
-1203 -93 94 0
-1203 -100 101 0
-1203 -107 108 0
-1203 -114 115 0
-1203 -191 192 0
-1203 -198 199 0
-1203 -205 206 0
-1209 -86 87 0
-1209 -93 94 0
-1209 -100 101 0
-1209 -107 108 0
-1209 -114 115 0
-1209 -191 192 0
-1209 -198 199 0
-1209 -205 206 0
-1215 -86 87 0
-1215 -93 94 0
-1215 -100 101 0
-1215 -107 108 0
-1215 -114 115 0
-1215 -191 192 0
-1215 -198 199 0
-1215 -205 206 0
-1221 -86 87 0
-1221 -93 94 0
-1221 -100 101 0
-1221 -107 108 0
-1221 -114 115 0
-1221 -191 192 0
-1221 -198 199 0
-1221 -205 206 0
-1227 -86 87 0
-1227 -93 94 0
-1227 -100 101 0
-1227 -107 108 0
-1227 -114 115 0
-1227 -191 192 0
-1227 -198 199 0
-1227 -205 206 0
-1233 -86 87 0
-1233 -93 94 0
-1233 -100 101 0
-1233 -107 108 0
-1233 -114 115 0
-1233 -191 192 0
-1233 -198 199 0
-1233 -205 206 0
-1239 -86 87 0
-1239 -93 94 0
-1239 -100 101 0
-1239 -107 108 0
-1239 -114 115 0
-1239 -191 192 0
-1239 -198 199 0
-1239 -205 206 0
-1245 -86 87 0
-1245 -93 94 0
-1245 -100 101 0
-1245 -107 108 0
-1245 -114 115 0
-1245 -191 192 0
-1245 -198 199 0
-1245 -205 206 0
-1251 -86 87 0
-1251 -93 94 0
-1251 -100 101 0
-1251 -107 108 0
-1251 -114 115 0
-1251 -191 192 0
-1251 -198 199 0
-1251 -205 206 0
-1257 -86 87 0
-1257 -93 94 0
-1257 -100 101 0
-1257 -107 108 0
-1257 -114 115 0
-1257 -191 192 0
-1257 -198 199 0
-1257 -205 206 0
-1263 -86 87 0
-1263 -93 94 0
-1263 -100 101 0
-1263 -107 108 0
-1263 -114 115 0
-1263 -191 192 0
-1263 -198 199 0
-1263 -205 206 0
-765 -121 122 0
-765 -128 129 0
-765 -135 136 0
-765 -142 143 0
-765 -212 213 0
-765 -219 220 0
-765 -226 227 0
-771 -121 122 0
-771 -128 129 0
-771 -135 136 0
-771 -142 143 0
-771 -212 213 0
-771 -219 220 0
-771 -226 227 0
-777 -121 122 0
-777 -128 129 0
-777 -135 136 0
-777 -142 143 0
-777 -212 213 0
-777 -219 220 0
-777 -226 227 0
-783 -121 122 0
-783 -128 129 0
-783 -135 136 0
-783 -142 143 0
-783 -212 213 0
-783 -219 220 0
-783 -226 227 0
-789 -121 122 0
-789 -128 129 0
-789 -135 136 0
-789 -142 143 0
-789 -212 213 0
-789 -219 220 0
-789 -226 227 0
-795 -121 122 0
-795 -128 129 0
-795 -135 136 0
-795 -142 143 0
-795 -212 213 0
-795 -219 220 0
-795 -226 227 0
-801 -121 122 0
-801 -128 129 0
-801 -135 136 0
-801 -142 143 0
-801 -212 213 0
-801 -219 220 0
-801 -226 227 0
-807 -121 122 0
-807 -128 129 0
-807 -135 136 0
-807 -142 143 0
-807 -212 213 0
-807 -219 220 0
-807 -226 227 0
-813 -121 122 0
-813 -128 129 0
-813 -135 136 0
-813 -142 143 0
-813 -212 213 0
-813 -219 220 0
-813 -226 227 0
-819 -121 122 0
-819 -128 129 0
-819 -135 136 0
-819 -142 143 0
-819 -212 213 0
-819 -219 220 0
-819 -226 227 0
-825 -121 122 0
-825 -128 129 0
-825 -135 136 0
-825 -142 143 0
-825 -212 213 0
-825 -219 220 0
-825 -226 227 0
-831 -121 122 0
-831 -128 129 0
-831 -135 136 0
-831 -142 143 0
-831 -212 213 0
-831 -219 220 0
-831 -226 227 0
-837 -121 122 0
-837 -128 129 0
-837 -135 136 0
-837 -142 143 0
-837 -212 213 0
-837 -219 220 0
-837 -226 227 0
-843 -121 122 0
-843 -128 129 0
-843 -135 136 0
-843 -142 143 0
-843 -212 213 0
-843 -219 220 0
-843 -226 227 0
-849 -121 122 0
-849 -128 129 0
-849 -135 136 0
-849 -142 143 0
-849 -212 213 0
-849 -219 220 0
-849 -226 227 0
-855 -121 122 0
-855 -128 129 0
-855 -135 136 0
-855 -142 143 0
-855 -212 213 0
-855 -219 220 0
-855 -226 227 0
-861 -121 122 0
-861 -128 129 0
-861 -135 136 0
-861 -142 143 0
-861 -212 213 0
-861 -219 220 0
-861 -226 227 0
-867 -121 122 0
-867 -128 129 0
-867 -135 136 0
-867 -142 143 0
-867 -212 213 0
-867 -219 220 0
-867 -226 227 0
-873 -121 122 0
-873 -128 129 0
-873 -135 136 0
-873 -142 143 0
-873 -212 213 0
-873 -219 220 0
-873 -226 227 0
-879 -121 122 0
-879 -128 129 0
-879 -135 136 0
-879 -142 143 0
-879 -212 213 0
-879 -219 220 0
-879 -226 227 0
-885 -121 122 0
-885 -128 129 0
-885 -135 136 0
-885 -142 143 0
-885 -212 213 0
-885 -219 220 0
-885 -226 227 0
-891 -121 122 0
-891 -128 129 0
-891 -135 136 0
-891 -142 143 0
-891 -212 213 0
-891 -219 220 0
-891 -226 227 0
-897 -121 122 0
-897 -128 129 0
-897 -135 136 0
-897 -142 143 0
-897 -212 213 0
-897 -219 220 0
-897 -226 227 0
-903 -121 122 0
-903 -128 129 0
-903 -135 136 0
-903 -142 143 0
-903 -212 213 0
-903 -219 220 0
-903 -226 227 0
-909 -121 122 0
-909 -128 129 0
-909 -135 136 0
-909 -142 143 0
-909 -212 213 0
-909 -219 220 0
-909 -226 227 0
-915 -121 122 0
-915 -128 129 0
-915 -135 136 0
-915 -142 143 0
-915 -212 213 0
-915 -219 220 0
-915 -226 227 0
-921 -121 122 0
-921 -128 129 0
-921 -135 136 0
-921 -142 143 0
-921 -212 213 0
-921 -219 220 0
-921 -226 227 0
-927 -121 122 0
-927 -128 129 0
-927 -135 136 0
-927 -142 143 0
-927 -212 213 0
-927 -219 220 0
-927 -226 227 0
-933 -121 122 0
-933 -128 129 0
-933 -135 136 0
-933 -142 143 0
-933 -212 213 0
-933 -219 220 0
-933 -226 227 0
-939 -121 122 0
-939 -128 129 0
-939 -135 136 0
-939 -142 143 0
-939 -212 213 0
-939 -219 220 0
-939 -226 227 0
-945 -121 122 0
-945 -128 129 0
-945 -135 136 0
-945 -142 143 0
-945 -212 213 0
-945 -219 220 0
-945 -226 227 0
-951 -121 122 0
-951 -128 129 0
-951 -135 136 0
-951 -142 143 0
-951 -212 213 0
-951 -219 220 0
-951 -226 227 0
-957 -121 122 0
-957 -128 129 0
-957 -135 136 0
-957 -142 143 0
-957 -212 213 0
-957 -219 220 0
-957 -226 227 0
-963 -121 122 0
-963 -128 129 0
-963 -135 136 0
-963 -142 143 0
-963 -212 213 0
-963 -219 220 0
-963 -226 227 0
-969 -121 122 0
-969 -128 129 0
-969 -135 136 0
-969 -142 143 0
-969 -212 213 0
-969 -219 220 0
-969 -226 227 0
-975 -121 122 0
-975 -128 129 0
-975 -135 136 0
-975 -142 143 0
-975 -212 213 0
-975 -219 220 0
-975 -226 227 0
-981 -121 122 0
-981 -128 129 0
-981 -135 136 0
-981 -142 143 0
-981 -212 213 0
-981 -219 220 0
-981 -226 227 0
-987 -121 122 0
-987 -128 129 0
-987 -135 136 0
-987 -142 143 0
-987 -212 213 0
-987 -219 220 0
-987 -226 227 0
-993 -121 122 0
-993 -128 129 0
-993 -135 136 0
-993 -142 143 0
-993 -212 213 0
-993 -219 220 0
-993 -226 227 0
-999 -121 122 0
-999 -128 129 0
-999 -135 136 0
-999 -142 143 0
-999 -212 213 0
-999 -219 220 0
-999 -226 227 0
-1005 -121 122 0
-1005 -128 129 0
-1005 -135 136 0
-1005 -142 143 0
-1005 -212 213 0
-1005 -219 220 0
-1005 -226 227 0
-1011 -121 122 0
-1011 -128 129 0
-1011 -135 136 0
-1011 -142 143 0
-1011 -212 213 0
-1011 -219 220 0
-1011 -226 227 0
-1017 -121 122 0
-1017 -128 129 0
-1017 -135 136 0
-1017 -142 143 0
-1017 -212 213 0
-1017 -219 220 0
-1017 -226 227 0
-1023 -121 122 0
-1023 -128 129 0
-1023 -135 136 0
-1023 -142 143 0
-1023 -212 213 0
-1023 -219 220 0
-1023 -226 227 0
-1029 -121 122 0
-1029 -128 129 0
-1029 -135 136 0
-1029 -142 143 0
-1029 -212 213 0
-1029 -219 220 0
-1029 -226 227 0
-1035 -121 122 0
-1035 -128 129 0
-1035 -135 136 0
-1035 -142 143 0
-1035 -212 213 0
-1035 -219 220 0
-1035 -226 227 0
-1041 -121 122 0
-1041 -128 129 0
-1041 -135 136 0
-1041 -142 143 0
-1041 -212 213 0
-1041 -219 220 0
-1041 -226 227 0
-1047 -121 122 0
-1047 -128 129 0
-1047 -135 136 0
-1047 -142 143 0
-1047 -212 213 0
-1047 -219 220 0
-1047 -226 227 0
-1053 -121 122 0
-1053 -128 129 0
-1053 -135 136 0
-1053 -142 143 0
-1053 -212 213 0
-1053 -219 220 0
-1053 -226 227 0
-1059 -121 122 0
-1059 -128 129 0
-1059 -135 136 0
-1059 -142 143 0
-1059 -212 213 0
-1059 -219 220 0
-1059 -226 227 0
-1065 -121 122 0
-1065 -128 129 0
-1065 -135 136 0
-1065 -142 143 0
-1065 -212 213 0
-1065 -219 220 0
-1065 -226 227 0
-1071 -121 122 0
-1071 -128 129 0
-1071 -135 136 0
-1071 -142 143 0
-1071 -212 213 0
-1071 -219 220 0
-1071 -226 227 0
-1077 -121 122 0
-1077 -128 129 0
-1077 -135 136 0
-1077 -142 143 0
-1077 -212 213 0
-1077 -219 220 0
-1077 -226 227 0
-1083 -121 122 0
-1083 -128 129 0
-1083 -135 136 0
-1083 -142 143 0
-1083 -212 213 0
-1083 -219 220 0
-1083 -226 227 0
-1089 -121 122 0
-1089 -128 129 0
-1089 -135 136 0
-1089 -142 143 0
-1089 -212 213 0
-1089 -219 220 0
-1089 -226 227 0
-1095 -121 122 0
-1095 -128 129 0
-1095 -135 136 0
-1095 -142 143 0
-1095 -212 213 0
-1095 -219 220 0
-1095 -226 227 0
-1101 -121 122 0
-1101 -128 129 0
-1101 -135 136 0
-1101 -142 143 0
-1101 -212 213 0
-1101 -219 220 0
-1101 -226 227 0
-1107 -121 122 0
-1107 -128 129 0
-1107 -135 136 0
-1107 -142 143 0
-1107 -212 213 0
-1107 -219 220 0
-1107 -226 227 0
-1113 -121 122 0
-1113 -128 129 0
-1113 -135 136 0
-1113 -142 143 0
-1113 -212 213 0
-1113 -219 220 0
-1113 -226 227 0
-1119 -121 122 0
-1119 -128 129 0
-1119 -135 136 0
-1119 -142 143 0
-1119 -212 213 0
-1119 -219 220 0
-1119 -226 227 0
-1125 -121 122 0
-1125 -128 129 0
-1125 -135 136 0
-1125 -142 143 0
-1125 -212 213 0
-1125 -219 220 0
-1125 -226 227 0
-1131 -121 122 0
-1131 -128 129 0
-1131 -135 136 0
-1131 -142 143 0
-1131 -212 213 0
-1131 -219 220 0
-1131 -226 227 0
-1137 -121 122 0
-1137 -128 129 0
-1137 -135 136 0
-1137 -142 143 0
-1137 -212 213 0
-1137 -219 220 0
-1137 -226 227 0
-1143 -121 122 0
-1143 -128 129 0
-1143 -135 136 0
-1143 -142 143 0
-1143 -212 213 0
-1143 -219 220 0
-1143 -226 227 0
-1149 -121 122 0
-1149 -128 129 0
-1149 -135 136 0
-1149 -142 143 0
-1149 -212 213 0
-1149 -219 220 0
-1149 -226 227 0
-1155 -121 122 0
-1155 -128 129 0
-1155 -135 136 0
-1155 -142 143 0
-1155 -212 213 0
-1155 -219 220 0
-1155 -226 227 0
-1161 -121 122 0
-1161 -128 129 0
-1161 -135 136 0
-1161 -142 143 0
-1161 -212 213 0
-1161 -219 220 0
-1161 -226 227 0
-1167 -121 122 0
-1167 -128 129 0
-1167 -135 136 0
-1167 -142 143 0
-1167 -212 213 0
-1167 -219 220 0
-1167 -226 227 0
-910 -3 4 0
-910 -10 11 0
-910 -17 18 0
-910 -24 25 0
-910 -31 32 0
-910 -38 39 0
-910 -150 151 0
-910 -157 158 0
-910 -164 165 0
-916 -3 4 0
-916 -10 11 0
-916 -17 18 0
-916 -24 25 0
-916 -31 32 0
-916 -38 39 0
-916 -150 151 0
-916 -157 158 0
-916 -164 165 0
-922 -3 4 0
-922 -10 11 0
-922 -17 18 0
-922 -24 25 0
-922 -31 32 0
-922 -38 39 0
-922 -150 151 0
-922 -157 158 0
-922 -164 165 0
-928 -3 4 0
-928 -10 11 0
-928 -17 18 0
-928 -24 25 0
-928 -31 32 0
-928 -38 39 0
-928 -150 151 0
-928 -157 158 0
-928 -164 165 0
-934 -3 4 0
-934 -10 11 0
-934 -17 18 0
-934 -24 25 0
-934 -31 32 0
-934 -38 39 0
-934 -150 151 0
-934 -157 158 0
-934 -164 165 0
-940 -3 4 0
-940 -10 11 0
-940 -17 18 0
-940 -24 25 0
-940 -31 32 0
-940 -38 39 0
-940 -150 151 0
-940 -157 158 0
-940 -164 165 0
-946 -3 4 0
-946 -10 11 0
-946 -17 18 0
-946 -24 25 0
-946 -31 32 0
-946 -38 39 0
-946 -150 151 0
-946 -157 158 0
-946 -164 165 0
-952 -3 4 0
-952 -10 11 0
-952 -17 18 0
-952 -24 25 0
-952 -31 32 0
-952 -38 39 0
-952 -150 151 0
-952 -157 158 0
-952 -164 165 0
-958 -3 4 0
-958 -10 11 0
-958 -17 18 0
-958 -24 25 0
-958 -31 32 0
-958 -38 39 0
-958 -150 151 0
-958 -157 158 0
-958 -164 165 0
-964 -3 4 0
-964 -10 11 0
-964 -17 18 0
-964 -24 25 0
-964 -31 32 0
-964 -38 39 0
-964 -150 151 0
-964 -157 158 0
-964 -164 165 0
-970 -3 4 0
-970 -10 11 0
-970 -17 18 0
-970 -24 25 0
-970 -31 32 0
-970 -38 39 0
-970 -150 151 0
-970 -157 158 0
-970 -164 165 0
-976 -3 4 0
-976 -10 11 0
-976 -17 18 0
-976 -24 25 0
-976 -31 32 0
-976 -38 39 0
-976 -150 151 0
-976 -157 158 0
-976 -164 165 0
-982 -3 4 0
-982 -10 11 0
-982 -17 18 0
-982 -24 25 0
-982 -31 32 0
-982 -38 39 0
-982 -150 151 0
-982 -157 158 0
-982 -164 165 0
-988 -3 4 0
-988 -10 11 0
-988 -17 18 0
-988 -24 25 0
-988 -31 32 0
-988 -38 39 0
-988 -150 151 0
-988 -157 158 0
-988 -164 165 0
-994 -3 4 0
-994 -10 11 0
-994 -17 18 0
-994 -24 25 0
-994 -31 32 0
-994 -38 39 0
-994 -150 151 0
-994 -157 158 0
-994 -164 165 0
-1000 -3 4 0
-1000 -10 11 0
-1000 -17 18 0
-1000 -24 25 0
-1000 -31 32 0
-1000 -38 39 0
-1000 -150 151 0
-1000 -157 158 0
-1000 -164 165 0
-1006 -3 4 0
-1006 -10 11 0
-1006 -17 18 0
-1006 -24 25 0
-1006 -31 32 0
-1006 -38 39 0
-1006 -150 151 0
-1006 -157 158 0
-1006 -164 165 0
-1012 -3 4 0
-1012 -10 11 0
-1012 -17 18 0
-1012 -24 25 0
-1012 -31 32 0
-1012 -38 39 0
-1012 -150 151 0
-1012 -157 158 0
-1012 -164 165 0
-1018 -3 4 0
-1018 -10 11 0
-1018 -17 18 0
-1018 -24 25 0
-1018 -31 32 0
-1018 -38 39 0
-1018 -150 151 0
-1018 -157 158 0
-1018 -164 165 0
-1024 -3 4 0
-1024 -10 11 0
-1024 -17 18 0
-1024 -24 25 0
-1024 -31 32 0
-1024 -38 39 0
-1024 -150 151 0
-1024 -157 158 0
-1024 -164 165 0
-1030 -3 4 0
-1030 -10 11 0
-1030 -17 18 0
-1030 -24 25 0
-1030 -31 32 0
-1030 -38 39 0
-1030 -150 151 0
-1030 -157 158 0
-1030 -164 165 0
-1036 -3 4 0
-1036 -10 11 0
-1036 -17 18 0
-1036 -24 25 0
-1036 -31 32 0
-1036 -38 39 0
-1036 -150 151 0
-1036 -157 158 0
-1036 -164 165 0
-1042 -3 4 0
-1042 -10 11 0
-1042 -17 18 0
-1042 -24 25 0
-1042 -31 32 0
-1042 -38 39 0
-1042 -150 151 0
-1042 -157 158 0
-1042 -164 165 0
-1048 -3 4 0
-1048 -10 11 0
-1048 -17 18 0
-1048 -24 25 0
-1048 -31 32 0
-1048 -38 39 0
-1048 -150 151 0
-1048 -157 158 0
-1048 -164 165 0
-1054 -3 4 0
-1054 -10 11 0
-1054 -17 18 0
-1054 -24 25 0
-1054 -31 32 0
-1054 -38 39 0
-1054 -150 151 0
-1054 -157 158 0
-1054 -164 165 0
-1060 -3 4 0
-1060 -10 11 0
-1060 -17 18 0
-1060 -24 25 0
-1060 -31 32 0
-1060 -38 39 0
-1060 -150 151 0
-1060 -157 158 0
-1060 -164 165 0
-1066 -3 4 0
-1066 -10 11 0
-1066 -17 18 0
-1066 -24 25 0
-1066 -31 32 0
-1066 -38 39 0
-1066 -150 151 0
-1066 -157 158 0
-1066 -164 165 0
-1072 -3 4 0
-1072 -10 11 0
-1072 -17 18 0
-1072 -24 25 0
-1072 -31 32 0
-1072 -38 39 0
-1072 -150 151 0
-1072 -157 158 0
-1072 -164 165 0
-1078 -3 4 0
-1078 -10 11 0
-1078 -17 18 0
-1078 -24 25 0
-1078 -31 32 0
-1078 -38 39 0
-1078 -150 151 0
-1078 -157 158 0
-1078 -164 165 0
-1084 -3 4 0
-1084 -10 11 0
-1084 -17 18 0
-1084 -24 25 0
-1084 -31 32 0
-1084 -38 39 0
-1084 -150 151 0
-1084 -157 158 0
-1084 -164 165 0
-1090 -3 4 0
-1090 -10 11 0
-1090 -17 18 0
-1090 -24 25 0
-1090 -31 32 0
-1090 -38 39 0
-1090 -150 151 0
-1090 -157 158 0
-1090 -164 165 0
-1096 -3 4 0
-1096 -10 11 0
-1096 -17 18 0
-1096 -24 25 0
-1096 -31 32 0
-1096 -38 39 0
-1096 -150 151 0
-1096 -157 158 0
-1096 -164 165 0
-1102 -3 4 0
-1102 -10 11 0
-1102 -17 18 0
-1102 -24 25 0
-1102 -31 32 0
-1102 -38 39 0
-1102 -150 151 0
-1102 -157 158 0
-1102 -164 165 0
-1108 -3 4 0
-1108 -10 11 0
-1108 -17 18 0
-1108 -24 25 0
-1108 -31 32 0
-1108 -38 39 0
-1108 -150 151 0
-1108 -157 158 0
-1108 -164 165 0
-1114 -3 4 0
-1114 -10 11 0
-1114 -17 18 0
-1114 -24 25 0
-1114 -31 32 0
-1114 -38 39 0
-1114 -150 151 0
-1114 -157 158 0
-1114 -164 165 0
-1120 -3 4 0
-1120 -10 11 0
-1120 -17 18 0
-1120 -24 25 0
-1120 -31 32 0
-1120 -38 39 0
-1120 -150 151 0
-1120 -157 158 0
-1120 -164 165 0
-1126 -3 4 0
-1126 -10 11 0
-1126 -17 18 0
-1126 -24 25 0
-1126 -31 32 0
-1126 -38 39 0
-1126 -150 151 0
-1126 -157 158 0
-1126 -164 165 0
-1132 -3 4 0
-1132 -10 11 0
-1132 -17 18 0
-1132 -24 25 0
-1132 -31 32 0
-1132 -38 39 0
-1132 -150 151 0
-1132 -157 158 0
-1132 -164 165 0
-1138 -3 4 0
-1138 -10 11 0
-1138 -17 18 0
-1138 -24 25 0
-1138 -31 32 0
-1138 -38 39 0
-1138 -150 151 0
-1138 -157 158 0
-1138 -164 165 0
-1144 -3 4 0
-1144 -10 11 0
-1144 -17 18 0
-1144 -24 25 0
-1144 -31 32 0
-1144 -38 39 0
-1144 -150 151 0
-1144 -157 158 0
-1144 -164 165 0
-1150 -3 4 0
-1150 -10 11 0
-1150 -17 18 0
-1150 -24 25 0
-1150 -31 32 0
-1150 -38 39 0
-1150 -150 151 0
-1150 -157 158 0
-1150 -164 165 0
-1156 -3 4 0
-1156 -10 11 0
-1156 -17 18 0
-1156 -24 25 0
-1156 -31 32 0
-1156 -38 39 0
-1156 -150 151 0
-1156 -157 158 0
-1156 -164 165 0
-1162 -3 4 0
-1162 -10 11 0
-1162 -17 18 0
-1162 -24 25 0
-1162 -31 32 0
-1162 -38 39 0
-1162 -150 151 0
-1162 -157 158 0
-1162 -164 165 0
-1168 -3 4 0
-1168 -10 11 0
-1168 -17 18 0
-1168 -24 25 0
-1168 -31 32 0
-1168 -38 39 0
-1168 -150 151 0
-1168 -157 158 0
-1168 -164 165 0
-1174 -3 4 0
-1174 -10 11 0
-1174 -17 18 0
-1174 -24 25 0
-1174 -31 32 0
-1174 -38 39 0
-1174 -150 151 0
-1174 -157 158 0
-1174 -164 165 0
-1180 -3 4 0
-1180 -10 11 0
-1180 -17 18 0
-1180 -24 25 0
-1180 -31 32 0
-1180 -38 39 0
-1180 -150 151 0
-1180 -157 158 0
-1180 -164 165 0
-1186 -3 4 0
-1186 -10 11 0
-1186 -17 18 0
-1186 -24 25 0
-1186 -31 32 0
-1186 -38 39 0
-1186 -150 151 0
-1186 -157 158 0
-1186 -164 165 0
-1192 -3 4 0
-1192 -10 11 0
-1192 -17 18 0
-1192 -24 25 0
-1192 -31 32 0
-1192 -38 39 0
-1192 -150 151 0
-1192 -157 158 0
-1192 -164 165 0
-1198 -3 4 0
-1198 -10 11 0
-1198 -17 18 0
-1198 -24 25 0
-1198 -31 32 0
-1198 -38 39 0
-1198 -150 151 0
-1198 -157 158 0
-1198 -164 165 0
-1204 -3 4 0
-1204 -10 11 0
-1204 -17 18 0
-1204 -24 25 0
-1204 -31 32 0
-1204 -38 39 0
-1204 -150 151 0
-1204 -157 158 0
-1204 -164 165 0
-1210 -3 4 0
-1210 -10 11 0
-1210 -17 18 0
-1210 -24 25 0
-1210 -31 32 0
-1210 -38 39 0
-1210 -150 151 0
-1210 -157 158 0
-1210 -164 165 0
-1216 -3 4 0
-1216 -10 11 0
-1216 -17 18 0
-1216 -24 25 0
-1216 -31 32 0
-1216 -38 39 0
-1216 -150 151 0
-1216 -157 158 0
-1216 -164 165 0
-1222 -3 4 0
-1222 -10 11 0
-1222 -17 18 0
-1222 -24 25 0
-1222 -31 32 0
-1222 -38 39 0
-1222 -150 151 0
-1222 -157 158 0
-1222 -164 165 0
-1228 -3 4 0
-1228 -10 11 0
-1228 -17 18 0
-1228 -24 25 0
-1228 -31 32 0
-1228 -38 39 0
-1228 -150 151 0
-1228 -157 158 0
-1228 -164 165 0
-1234 -3 4 0
-1234 -10 11 0
-1234 -17 18 0
-1234 -24 25 0
-1234 -31 32 0
-1234 -38 39 0
-1234 -150 151 0
-1234 -157 158 0
-1234 -164 165 0
-1240 -3 4 0
-1240 -10 11 0
-1240 -17 18 0
-1240 -24 25 0
-1240 -31 32 0
-1240 -38 39 0
-1240 -150 151 0
-1240 -157 158 0
-1240 -164 165 0
-1246 -3 4 0
-1246 -10 11 0
-1246 -17 18 0
-1246 -24 25 0
-1246 -31 32 0
-1246 -38 39 0
-1246 -150 151 0
-1246 -157 158 0
-1246 -164 165 0
-1252 -3 4 0
-1252 -10 11 0
-1252 -17 18 0
-1252 -24 25 0
-1252 -31 32 0
-1252 -38 39 0
-1252 -150 151 0
-1252 -157 158 0
-1252 -164 165 0
-1258 -3 4 0
-1258 -10 11 0
-1258 -17 18 0
-1258 -24 25 0
-1258 -31 32 0
-1258 -38 39 0
-1258 -150 151 0
-1258 -157 158 0
-1258 -164 165 0
-1264 -3 4 0
-1264 -10 11 0
-1264 -17 18 0
-1264 -24 25 0
-1264 -31 32 0
-1264 -38 39 0
-1264 -150 151 0
-1264 -157 158 0
-1264 -164 165 0
-766 -45 46 0
-766 -52 53 0
-766 -59 60 0
-766 -66 67 0
-766 -73 74 0
-766 -80 81 0
-766 -171 172 0
-766 -178 179 0
-766 -185 186 0
-772 -45 46 0
-772 -52 53 0
-772 -59 60 0
-772 -66 67 0
-772 -73 74 0
-772 -80 81 0
-772 -171 172 0
-772 -178 179 0
-772 -185 186 0
-778 -45 46 0
-778 -52 53 0
-778 -59 60 0
-778 -66 67 0
-778 -73 74 0
-778 -80 81 0
-778 -171 172 0
-778 -178 179 0
-778 -185 186 0
-784 -45 46 0
-784 -52 53 0
-784 -59 60 0
-784 -66 67 0
-784 -73 74 0
-784 -80 81 0
-784 -171 172 0
-784 -178 179 0
-784 -185 186 0
-790 -45 46 0
-790 -52 53 0
-790 -59 60 0
-790 -66 67 0
-790 -73 74 0
-790 -80 81 0
-790 -171 172 0
-790 -178 179 0
-790 -185 186 0
-796 -45 46 0
-796 -52 53 0
-796 -59 60 0
-796 -66 67 0
-796 -73 74 0
-796 -80 81 0
-796 -171 172 0
-796 -178 179 0
-796 -185 186 0
-802 -45 46 0
-802 -52 53 0
-802 -59 60 0
-802 -66 67 0
-802 -73 74 0
-802 -80 81 0
-802 -171 172 0
-802 -178 179 0
-802 -185 186 0
-808 -45 46 0
-808 -52 53 0
-808 -59 60 0
-808 -66 67 0
-808 -73 74 0
-808 -80 81 0
-808 -171 172 0
-808 -178 179 0
-808 -185 186 0
-814 -45 46 0
-814 -52 53 0
-814 -59 60 0
-814 -66 67 0
-814 -73 74 0
-814 -80 81 0
-814 -171 172 0
-814 -178 179 0
-814 -185 186 0
-820 -45 46 0
-820 -52 53 0
-820 -59 60 0
-820 -66 67 0
-820 -73 74 0
-820 -80 81 0
-820 -171 172 0
-820 -178 179 0
-820 -185 186 0
-826 -45 46 0
-826 -52 53 0
-826 -59 60 0
-826 -66 67 0
-826 -73 74 0
-826 -80 81 0
-826 -171 172 0
-826 -178 179 0
-826 -185 186 0
-832 -45 46 0
-832 -52 53 0
-832 -59 60 0
-832 -66 67 0
-832 -73 74 0
-832 -80 81 0
-832 -171 172 0
-832 -178 179 0
-832 -185 186 0
-838 -45 46 0
-838 -52 53 0
-838 -59 60 0
-838 -66 67 0
-838 -73 74 0
-838 -80 81 0
-838 -171 172 0
-838 -178 179 0
-838 -185 186 0
-844 -45 46 0
-844 -52 53 0
-844 -59 60 0
-844 -66 67 0
-844 -73 74 0
-844 -80 81 0
-844 -171 172 0
-844 -178 179 0
-844 -185 186 0
-850 -45 46 0
-850 -52 53 0
-850 -59 60 0
-850 -66 67 0
-850 -73 74 0
-850 -80 81 0
-850 -171 172 0
-850 -178 179 0
-850 -185 186 0
-856 -45 46 0
-856 -52 53 0
-856 -59 60 0
-856 -66 67 0
-856 -73 74 0
-856 -80 81 0
-856 -171 172 0
-856 -178 179 0
-856 -185 186 0
-862 -45 46 0
-862 -52 53 0
-862 -59 60 0
-862 -66 67 0
-862 -73 74 0
-862 -80 81 0
-862 -171 172 0
-862 -178 179 0
-862 -185 186 0
-868 -45 46 0
-868 -52 53 0
-868 -59 60 0
-868 -66 67 0
-868 -73 74 0
-868 -80 81 0
-868 -171 172 0
-868 -178 179 0
-868 -185 186 0
-874 -45 46 0
-874 -52 53 0
-874 -59 60 0
-874 -66 67 0
-874 -73 74 0
-874 -80 81 0
-874 -171 172 0
-874 -178 179 0
-874 -185 186 0
-880 -45 46 0
-880 -52 53 0
-880 -59 60 0
-880 -66 67 0
-880 -73 74 0
-880 -80 81 0
-880 -171 172 0
-880 -178 179 0
-880 -185 186 0
-886 -45 46 0
-886 -52 53 0
-886 -59 60 0
-886 -66 67 0
-886 -73 74 0
-886 -80 81 0
-886 -171 172 0
-886 -178 179 0
-886 -185 186 0
-892 -45 46 0
-892 -52 53 0
-892 -59 60 0
-892 -66 67 0
-892 -73 74 0
-892 -80 81 0
-892 -171 172 0
-892 -178 179 0
-892 -185 186 0
-898 -45 46 0
-898 -52 53 0
-898 -59 60 0
-898 -66 67 0
-898 -73 74 0
-898 -80 81 0
-898 -171 172 0
-898 -178 179 0
-898 -185 186 0
-904 -45 46 0
-904 -52 53 0
-904 -59 60 0
-904 -66 67 0
-904 -73 74 0
-904 -80 81 0
-904 -171 172 0
-904 -178 179 0
-904 -185 186 0
-1054 -45 46 0
-1054 -52 53 0
-1054 -59 60 0
-1054 -66 67 0
-1054 -73 74 0
-1054 -80 81 0
-1054 -171 172 0
-1054 -178 179 0
-1054 -185 186 0
-1060 -45 46 0
-1060 -52 53 0
-1060 -59 60 0
-1060 -66 67 0
-1060 -73 74 0
-1060 -80 81 0
-1060 -171 172 0
-1060 -178 179 0
-1060 -185 186 0
-1066 -45 46 0
-1066 -52 53 0
-1066 -59 60 0
-1066 -66 67 0
-1066 -73 74 0
-1066 -80 81 0
-1066 -171 172 0
-1066 -178 179 0
-1066 -185 186 0
-1072 -45 46 0
-1072 -52 53 0
-1072 -59 60 0
-1072 -66 67 0
-1072 -73 74 0
-1072 -80 81 0
-1072 -171 172 0
-1072 -178 179 0
-1072 -185 186 0
-1078 -45 46 0
-1078 -52 53 0
-1078 -59 60 0
-1078 -66 67 0
-1078 -73 74 0
-1078 -80 81 0
-1078 -171 172 0
-1078 -178 179 0
-1078 -185 186 0
-1084 -45 46 0
-1084 -52 53 0
-1084 -59 60 0
-1084 -66 67 0
-1084 -73 74 0
-1084 -80 81 0
-1084 -171 172 0
-1084 -178 179 0
-1084 -185 186 0
-1090 -45 46 0
-1090 -52 53 0
-1090 -59 60 0
-1090 -66 67 0
-1090 -73 74 0
-1090 -80 81 0
-1090 -171 172 0
-1090 -178 179 0
-1090 -185 186 0
-1096 -45 46 0
-1096 -52 53 0
-1096 -59 60 0
-1096 -66 67 0
-1096 -73 74 0
-1096 -80 81 0
-1096 -171 172 0
-1096 -178 179 0
-1096 -185 186 0
-1102 -45 46 0
-1102 -52 53 0
-1102 -59 60 0
-1102 -66 67 0
-1102 -73 74 0
-1102 -80 81 0
-1102 -171 172 0
-1102 -178 179 0
-1102 -185 186 0
-1108 -45 46 0
-1108 -52 53 0
-1108 -59 60 0
-1108 -66 67 0
-1108 -73 74 0
-1108 -80 81 0
-1108 -171 172 0
-1108 -178 179 0
-1108 -185 186 0
-1114 -45 46 0
-1114 -52 53 0
-1114 -59 60 0
-1114 -66 67 0
-1114 -73 74 0
-1114 -80 81 0
-1114 -171 172 0
-1114 -178 179 0
-1114 -185 186 0
-1120 -45 46 0
-1120 -52 53 0
-1120 -59 60 0
-1120 -66 67 0
-1120 -73 74 0
-1120 -80 81 0
-1120 -171 172 0
-1120 -178 179 0
-1120 -185 186 0
-1126 -45 46 0
-1126 -52 53 0
-1126 -59 60 0
-1126 -66 67 0
-1126 -73 74 0
-1126 -80 81 0
-1126 -171 172 0
-1126 -178 179 0
-1126 -185 186 0
-1132 -45 46 0
-1132 -52 53 0
-1132 -59 60 0
-1132 -66 67 0
-1132 -73 74 0
-1132 -80 81 0
-1132 -171 172 0
-1132 -178 179 0
-1132 -185 186 0
-1138 -45 46 0
-1138 -52 53 0
-1138 -59 60 0
-1138 -66 67 0
-1138 -73 74 0
-1138 -80 81 0
-1138 -171 172 0
-1138 -178 179 0
-1138 -185 186 0
-1144 -45 46 0
-1144 -52 53 0
-1144 -59 60 0
-1144 -66 67 0
-1144 -73 74 0
-1144 -80 81 0
-1144 -171 172 0
-1144 -178 179 0
-1144 -185 186 0
-1150 -45 46 0
-1150 -52 53 0
-1150 -59 60 0
-1150 -66 67 0
-1150 -73 74 0
-1150 -80 81 0
-1150 -171 172 0
-1150 -178 179 0
-1150 -185 186 0
-1156 -45 46 0
-1156 -52 53 0
-1156 -59 60 0
-1156 -66 67 0
-1156 -73 74 0
-1156 -80 81 0
-1156 -171 172 0
-1156 -178 179 0
-1156 -185 186 0
-1162 -45 46 0
-1162 -52 53 0
-1162 -59 60 0
-1162 -66 67 0
-1162 -73 74 0
-1162 -80 81 0
-1162 -171 172 0
-1162 -178 179 0
-1162 -185 186 0
-1168 -45 46 0
-1168 -52 53 0
-1168 -59 60 0
-1168 -66 67 0
-1168 -73 74 0
-1168 -80 81 0
-1168 -171 172 0
-1168 -178 179 0
-1168 -185 186 0
-1174 -45 46 0
-1174 -52 53 0
-1174 -59 60 0
-1174 -66 67 0
-1174 -73 74 0
-1174 -80 81 0
-1174 -171 172 0
-1174 -178 179 0
-1174 -185 186 0
-1180 -45 46 0
-1180 -52 53 0
-1180 -59 60 0
-1180 -66 67 0
-1180 -73 74 0
-1180 -80 81 0
-1180 -171 172 0
-1180 -178 179 0
-1180 -185 186 0
-1186 -45 46 0
-1186 -52 53 0
-1186 -59 60 0
-1186 -66 67 0
-1186 -73 74 0
-1186 -80 81 0
-1186 -171 172 0
-1186 -178 179 0
-1186 -185 186 0
-1192 -45 46 0
-1192 -52 53 0
-1192 -59 60 0
-1192 -66 67 0
-1192 -73 74 0
-1192 -80 81 0
-1192 -171 172 0
-1192 -178 179 0
-1192 -185 186 0
-1198 -45 46 0
-1198 -52 53 0
-1198 -59 60 0
-1198 -66 67 0
-1198 -73 74 0
-1198 -80 81 0
-1198 -171 172 0
-1198 -178 179 0
-1198 -185 186 0
-1204 -45 46 0
-1204 -52 53 0
-1204 -59 60 0
-1204 -66 67 0
-1204 -73 74 0
-1204 -80 81 0
-1204 -171 172 0
-1204 -178 179 0
-1204 -185 186 0
-1210 -45 46 0
-1210 -52 53 0
-1210 -59 60 0
-1210 -66 67 0
-1210 -73 74 0
-1210 -80 81 0
-1210 -171 172 0
-1210 -178 179 0
-1210 -185 186 0
-1216 -45 46 0
-1216 -52 53 0
-1216 -59 60 0
-1216 -66 67 0
-1216 -73 74 0
-1216 -80 81 0
-1216 -171 172 0
-1216 -178 179 0
-1216 -185 186 0
-1222 -45 46 0
-1222 -52 53 0
-1222 -59 60 0
-1222 -66 67 0
-1222 -73 74 0
-1222 -80 81 0
-1222 -171 172 0
-1222 -178 179 0
-1222 -185 186 0
-1228 -45 46 0
-1228 -52 53 0
-1228 -59 60 0
-1228 -66 67 0
-1228 -73 74 0
-1228 -80 81 0
-1228 -171 172 0
-1228 -178 179 0
-1228 -185 186 0
-1234 -45 46 0
-1234 -52 53 0
-1234 -59 60 0
-1234 -66 67 0
-1234 -73 74 0
-1234 -80 81 0
-1234 -171 172 0
-1234 -178 179 0
-1234 -185 186 0
-1240 -45 46 0
-1240 -52 53 0
-1240 -59 60 0
-1240 -66 67 0
-1240 -73 74 0
-1240 -80 81 0
-1240 -171 172 0
-1240 -178 179 0
-1240 -185 186 0
-1246 -45 46 0
-1246 -52 53 0
-1246 -59 60 0
-1246 -66 67 0
-1246 -73 74 0
-1246 -80 81 0
-1246 -171 172 0
-1246 -178 179 0
-1246 -185 186 0
-1252 -45 46 0
-1252 -52 53 0
-1252 -59 60 0
-1252 -66 67 0
-1252 -73 74 0
-1252 -80 81 0
-1252 -171 172 0
-1252 -178 179 0
-1252 -185 186 0
-1258 -45 46 0
-1258 -52 53 0
-1258 -59 60 0
-1258 -66 67 0
-1258 -73 74 0
-1258 -80 81 0
-1258 -171 172 0
-1258 -178 179 0
-1258 -185 186 0
-1264 -45 46 0
-1264 -52 53 0
-1264 -59 60 0
-1264 -66 67 0
-1264 -73 74 0
-1264 -80 81 0
-1264 -171 172 0
-1264 -178 179 0
-1264 -185 186 0
-766 -87 88 0
-766 -94 95 0
-766 -101 102 0
-766 -108 109 0
-766 -115 116 0
-766 -192 193 0
-766 -199 200 0
-766 -206 207 0
-772 -87 88 0
-772 -94 95 0
-772 -101 102 0
-772 -108 109 0
-772 -115 116 0
-772 -192 193 0
-772 -199 200 0
-772 -206 207 0
-778 -87 88 0
-778 -94 95 0
-778 -101 102 0
-778 -108 109 0
-778 -115 116 0
-778 -192 193 0
-778 -199 200 0
-778 -206 207 0
-784 -87 88 0
-784 -94 95 0
-784 -101 102 0
-784 -108 109 0
-784 -115 116 0
-784 -192 193 0
-784 -199 200 0
-784 -206 207 0
-790 -87 88 0
-790 -94 95 0
-790 -101 102 0
-790 -108 109 0
-790 -115 116 0
-790 -192 193 0
-790 -199 200 0
-790 -206 207 0
-796 -87 88 0
-796 -94 95 0
-796 -101 102 0
-796 -108 109 0
-796 -115 116 0
-796 -192 193 0
-796 -199 200 0
-796 -206 207 0
-802 -87 88 0
-802 -94 95 0
-802 -101 102 0
-802 -108 109 0
-802 -115 116 0
-802 -192 193 0
-802 -199 200 0
-802 -206 207 0
-808 -87 88 0
-808 -94 95 0
-808 -101 102 0
-808 -108 109 0
-808 -115 116 0
-808 -192 193 0
-808 -199 200 0
-808 -206 207 0
-814 -87 88 0
-814 -94 95 0
-814 -101 102 0
-814 -108 109 0
-814 -115 116 0
-814 -192 193 0
-814 -199 200 0
-814 -206 207 0
-820 -87 88 0
-820 -94 95 0
-820 -101 102 0
-820 -108 109 0
-820 -115 116 0
-820 -192 193 0
-820 -199 200 0
-820 -206 207 0
-826 -87 88 0
-826 -94 95 0
-826 -101 102 0
-826 -108 109 0
-826 -115 116 0
-826 -192 193 0
-826 -199 200 0
-826 -206 207 0
-832 -87 88 0
-832 -94 95 0
-832 -101 102 0
-832 -108 109 0
-832 -115 116 0
-832 -192 193 0
-832 -199 200 0
-832 -206 207 0
-838 -87 88 0
-838 -94 95 0
-838 -101 102 0
-838 -108 109 0
-838 -115 116 0
-838 -192 193 0
-838 -199 200 0
-838 -206 207 0
-844 -87 88 0
-844 -94 95 0
-844 -101 102 0
-844 -108 109 0
-844 -115 116 0
-844 -192 193 0
-844 -199 200 0
-844 -206 207 0
-850 -87 88 0
-850 -94 95 0
-850 -101 102 0
-850 -108 109 0
-850 -115 116 0
-850 -192 193 0
-850 -199 200 0
-850 -206 207 0
-856 -87 88 0
-856 -94 95 0
-856 -101 102 0
-856 -108 109 0
-856 -115 116 0
-856 -192 193 0
-856 -199 200 0
-856 -206 207 0
-862 -87 88 0
-862 -94 95 0
-862 -101 102 0
-862 -108 109 0
-862 -115 116 0
-862 -192 193 0
-862 -199 200 0
-862 -206 207 0
-868 -87 88 0
-868 -94 95 0
-868 -101 102 0
-868 -108 109 0
-868 -115 116 0
-868 -192 193 0
-868 -199 200 0
-868 -206 207 0
-874 -87 88 0
-874 -94 95 0
-874 -101 102 0
-874 -108 109 0
-874 -115 116 0
-874 -192 193 0
-874 -199 200 0
-874 -206 207 0
-880 -87 88 0
-880 -94 95 0
-880 -101 102 0
-880 -108 109 0
-880 -115 116 0
-880 -192 193 0
-880 -199 200 0
-880 -206 207 0
-886 -87 88 0
-886 -94 95 0
-886 -101 102 0
-886 -108 109 0
-886 -115 116 0
-886 -192 193 0
-886 -199 200 0
-886 -206 207 0
-892 -87 88 0
-892 -94 95 0
-892 -101 102 0
-892 -108 109 0
-892 -115 116 0
-892 -192 193 0
-892 -199 200 0
-892 -206 207 0
-898 -87 88 0
-898 -94 95 0
-898 -101 102 0
-898 -108 109 0
-898 -115 116 0
-898 -192 193 0
-898 -199 200 0
-898 -206 207 0
-904 -87 88 0
-904 -94 95 0
-904 -101 102 0
-904 -108 109 0
-904 -115 116 0
-904 -192 193 0
-904 -199 200 0
-904 -206 207 0
-910 -87 88 0
-910 -94 95 0
-910 -101 102 0
-910 -108 109 0
-910 -115 116 0
-910 -192 193 0
-910 -199 200 0
-910 -206 207 0
-916 -87 88 0
-916 -94 95 0
-916 -101 102 0
-916 -108 109 0
-916 -115 116 0
-916 -192 193 0
-916 -199 200 0
-916 -206 207 0
-922 -87 88 0
-922 -94 95 0
-922 -101 102 0
-922 -108 109 0
-922 -115 116 0
-922 -192 193 0
-922 -199 200 0
-922 -206 207 0
-928 -87 88 0
-928 -94 95 0
-928 -101 102 0
-928 -108 109 0
-928 -115 116 0
-928 -192 193 0
-928 -199 200 0
-928 -206 207 0
-934 -87 88 0
-934 -94 95 0
-934 -101 102 0
-934 -108 109 0
-934 -115 116 0
-934 -192 193 0
-934 -199 200 0
-934 -206 207 0
-940 -87 88 0
-940 -94 95 0
-940 -101 102 0
-940 -108 109 0
-940 -115 116 0
-940 -192 193 0
-940 -199 200 0
-940 -206 207 0
-946 -87 88 0
-946 -94 95 0
-946 -101 102 0
-946 -108 109 0
-946 -115 116 0
-946 -192 193 0
-946 -199 200 0
-946 -206 207 0
-952 -87 88 0
-952 -94 95 0
-952 -101 102 0
-952 -108 109 0
-952 -115 116 0
-952 -192 193 0
-952 -199 200 0
-952 -206 207 0
-958 -87 88 0
-958 -94 95 0
-958 -101 102 0
-958 -108 109 0
-958 -115 116 0
-958 -192 193 0
-958 -199 200 0
-958 -206 207 0
-964 -87 88 0
-964 -94 95 0
-964 -101 102 0
-964 -108 109 0
-964 -115 116 0
-964 -192 193 0
-964 -199 200 0
-964 -206 207 0
-970 -87 88 0
-970 -94 95 0
-970 -101 102 0
-970 -108 109 0
-970 -115 116 0
-970 -192 193 0
-970 -199 200 0
-970 -206 207 0
-976 -87 88 0
-976 -94 95 0
-976 -101 102 0
-976 -108 109 0
-976 -115 116 0
-976 -192 193 0
-976 -199 200 0
-976 -206 207 0
-982 -87 88 0
-982 -94 95 0
-982 -101 102 0
-982 -108 109 0
-982 -115 116 0
-982 -192 193 0
-982 -199 200 0
-982 -206 207 0
-988 -87 88 0
-988 -94 95 0
-988 -101 102 0
-988 -108 109 0
-988 -115 116 0
-988 -192 193 0
-988 -199 200 0
-988 -206 207 0
-994 -87 88 0
-994 -94 95 0
-994 -101 102 0
-994 -108 109 0
-994 -115 116 0
-994 -192 193 0
-994 -199 200 0
-994 -206 207 0
-1000 -87 88 0
-1000 -94 95 0
-1000 -101 102 0
-1000 -108 109 0
-1000 -115 116 0
-1000 -192 193 0
-1000 -199 200 0
-1000 -206 207 0
-1006 -87 88 0
-1006 -94 95 0
-1006 -101 102 0
-1006 -108 109 0
-1006 -115 116 0
-1006 -192 193 0
-1006 -199 200 0
-1006 -206 207 0
-1012 -87 88 0
-1012 -94 95 0
-1012 -101 102 0
-1012 -108 109 0
-1012 -115 116 0
-1012 -192 193 0
-1012 -199 200 0
-1012 -206 207 0
-1018 -87 88 0
-1018 -94 95 0
-1018 -101 102 0
-1018 -108 109 0
-1018 -115 116 0
-1018 -192 193 0
-1018 -199 200 0
-1018 -206 207 0
-1024 -87 88 0
-1024 -94 95 0
-1024 -101 102 0
-1024 -108 109 0
-1024 -115 116 0
-1024 -192 193 0
-1024 -199 200 0
-1024 -206 207 0
-1030 -87 88 0
-1030 -94 95 0
-1030 -101 102 0
-1030 -108 109 0
-1030 -115 116 0
-1030 -192 193 0
-1030 -199 200 0
-1030 -206 207 0
-1036 -87 88 0
-1036 -94 95 0
-1036 -101 102 0
-1036 -108 109 0
-1036 -115 116 0
-1036 -192 193 0
-1036 -199 200 0
-1036 -206 207 0
-1042 -87 88 0
-1042 -94 95 0
-1042 -101 102 0
-1042 -108 109 0
-1042 -115 116 0
-1042 -192 193 0
-1042 -199 200 0
-1042 -206 207 0
-1048 -87 88 0
-1048 -94 95 0
-1048 -101 102 0
-1048 -108 109 0
-1048 -115 116 0
-1048 -192 193 0
-1048 -199 200 0
-1048 -206 207 0
-1174 -87 88 0
-1174 -94 95 0
-1174 -101 102 0
-1174 -108 109 0
-1174 -115 116 0
-1174 -192 193 0
-1174 -199 200 0
-1174 -206 207 0
-1180 -87 88 0
-1180 -94 95 0
-1180 -101 102 0
-1180 -108 109 0
-1180 -115 116 0
-1180 -192 193 0
-1180 -199 200 0
-1180 -206 207 0
-1186 -87 88 0
-1186 -94 95 0
-1186 -101 102 0
-1186 -108 109 0
-1186 -115 116 0
-1186 -192 193 0
-1186 -199 200 0
-1186 -206 207 0
-1192 -87 88 0
-1192 -94 95 0
-1192 -101 102 0
-1192 -108 109 0
-1192 -115 116 0
-1192 -192 193 0
-1192 -199 200 0
-1192 -206 207 0
-1198 -87 88 0
-1198 -94 95 0
-1198 -101 102 0
-1198 -108 109 0
-1198 -115 116 0
-1198 -192 193 0
-1198 -199 200 0
-1198 -206 207 0
-1204 -87 88 0
-1204 -94 95 0
-1204 -101 102 0
-1204 -108 109 0
-1204 -115 116 0
-1204 -192 193 0
-1204 -199 200 0
-1204 -206 207 0
-1210 -87 88 0
-1210 -94 95 0
-1210 -101 102 0
-1210 -108 109 0
-1210 -115 116 0
-1210 -192 193 0
-1210 -199 200 0
-1210 -206 207 0
-1216 -87 88 0
-1216 -94 95 0
-1216 -101 102 0
-1216 -108 109 0
-1216 -115 116 0
-1216 -192 193 0
-1216 -199 200 0
-1216 -206 207 0
-1222 -87 88 0
-1222 -94 95 0
-1222 -101 102 0
-1222 -108 109 0
-1222 -115 116 0
-1222 -192 193 0
-1222 -199 200 0
-1222 -206 207 0
-1228 -87 88 0
-1228 -94 95 0
-1228 -101 102 0
-1228 -108 109 0
-1228 -115 116 0
-1228 -192 193 0
-1228 -199 200 0
-1228 -206 207 0
-1234 -87 88 0
-1234 -94 95 0
-1234 -101 102 0
-1234 -108 109 0
-1234 -115 116 0
-1234 -192 193 0
-1234 -199 200 0
-1234 -206 207 0
-1240 -87 88 0
-1240 -94 95 0
-1240 -101 102 0
-1240 -108 109 0
-1240 -115 116 0
-1240 -192 193 0
-1240 -199 200 0
-1240 -206 207 0
-1246 -87 88 0
-1246 -94 95 0
-1246 -101 102 0
-1246 -108 109 0
-1246 -115 116 0
-1246 -192 193 0
-1246 -199 200 0
-1246 -206 207 0
-1252 -87 88 0
-1252 -94 95 0
-1252 -101 102 0
-1252 -108 109 0
-1252 -115 116 0
-1252 -192 193 0
-1252 -199 200 0
-1252 -206 207 0
-1258 -87 88 0
-1258 -94 95 0
-1258 -101 102 0
-1258 -108 109 0
-1258 -115 116 0
-1258 -192 193 0
-1258 -199 200 0
-1258 -206 207 0
-1264 -87 88 0
-1264 -94 95 0
-1264 -101 102 0
-1264 -108 109 0
-1264 -115 116 0
-1264 -192 193 0
-1264 -199 200 0
-1264 -206 207 0
-766 -122 123 0
-766 -129 130 0
-766 -136 137 0
-766 -143 144 0
-766 -213 214 0
-766 -220 221 0
-766 -227 228 0
-772 -122 123 0
-772 -129 130 0
-772 -136 137 0
-772 -143 144 0
-772 -213 214 0
-772 -220 221 0
-772 -227 228 0
-778 -122 123 0
-778 -129 130 0
-778 -136 137 0
-778 -143 144 0
-778 -213 214 0
-778 -220 221 0
-778 -227 228 0
-784 -122 123 0
-784 -129 130 0
-784 -136 137 0
-784 -143 144 0
-784 -213 214 0
-784 -220 221 0
-784 -227 228 0
-790 -122 123 0
-790 -129 130 0
-790 -136 137 0
-790 -143 144 0
-790 -213 214 0
-790 -220 221 0
-790 -227 228 0
-796 -122 123 0
-796 -129 130 0
-796 -136 137 0
-796 -143 144 0
-796 -213 214 0
-796 -220 221 0
-796 -227 228 0
-802 -122 123 0
-802 -129 130 0
-802 -136 137 0
-802 -143 144 0
-802 -213 214 0
-802 -220 221 0
-802 -227 228 0
-808 -122 123 0
-808 -129 130 0
-808 -136 137 0
-808 -143 144 0
-808 -213 214 0
-808 -220 221 0
-808 -227 228 0
-814 -122 123 0
-814 -129 130 0
-814 -136 137 0
-814 -143 144 0
-814 -213 214 0
-814 -220 221 0
-814 -227 228 0
-820 -122 123 0
-820 -129 130 0
-820 -136 137 0
-820 -143 144 0
-820 -213 214 0
-820 -220 221 0
-820 -227 228 0
-826 -122 123 0
-826 -129 130 0
-826 -136 137 0
-826 -143 144 0
-826 -213 214 0
-826 -220 221 0
-826 -227 228 0
-832 -122 123 0
-832 -129 130 0
-832 -136 137 0
-832 -143 144 0
-832 -213 214 0
-832 -220 221 0
-832 -227 228 0
-838 -122 123 0
-838 -129 130 0
-838 -136 137 0
-838 -143 144 0
-838 -213 214 0
-838 -220 221 0
-838 -227 228 0
-844 -122 123 0
-844 -129 130 0
-844 -136 137 0
-844 -143 144 0
-844 -213 214 0
-844 -220 221 0
-844 -227 228 0
-850 -122 123 0
-850 -129 130 0
-850 -136 137 0
-850 -143 144 0
-850 -213 214 0
-850 -220 221 0
-850 -227 228 0
-856 -122 123 0
-856 -129 130 0
-856 -136 137 0
-856 -143 144 0
-856 -213 214 0
-856 -220 221 0
-856 -227 228 0
-862 -122 123 0
-862 -129 130 0
-862 -136 137 0
-862 -143 144 0
-862 -213 214 0
-862 -220 221 0
-862 -227 228 0
-868 -122 123 0
-868 -129 130 0
-868 -136 137 0
-868 -143 144 0
-868 -213 214 0
-868 -220 221 0
-868 -227 228 0
-874 -122 123 0
-874 -129 130 0
-874 -136 137 0
-874 -143 144 0
-874 -213 214 0
-874 -220 221 0
-874 -227 228 0
-880 -122 123 0
-880 -129 130 0
-880 -136 137 0
-880 -143 144 0
-880 -213 214 0
-880 -220 221 0
-880 -227 228 0
-886 -122 123 0
-886 -129 130 0
-886 -136 137 0
-886 -143 144 0
-886 -213 214 0
-886 -220 221 0
-886 -227 228 0
-892 -122 123 0
-892 -129 130 0
-892 -136 137 0
-892 -143 144 0
-892 -213 214 0
-892 -220 221 0
-892 -227 228 0
-898 -122 123 0
-898 -129 130 0
-898 -136 137 0
-898 -143 144 0
-898 -213 214 0
-898 -220 221 0
-898 -227 228 0
-904 -122 123 0
-904 -129 130 0
-904 -136 137 0
-904 -143 144 0
-904 -213 214 0
-904 -220 221 0
-904 -227 228 0
-910 -122 123 0
-910 -129 130 0
-910 -136 137 0
-910 -143 144 0
-910 -213 214 0
-910 -220 221 0
-910 -227 228 0
-916 -122 123 0
-916 -129 130 0
-916 -136 137 0
-916 -143 144 0
-916 -213 214 0
-916 -220 221 0
-916 -227 228 0
-922 -122 123 0
-922 -129 130 0
-922 -136 137 0
-922 -143 144 0
-922 -213 214 0
-922 -220 221 0
-922 -227 228 0
-928 -122 123 0
-928 -129 130 0
-928 -136 137 0
-928 -143 144 0
-928 -213 214 0
-928 -220 221 0
-928 -227 228 0
-934 -122 123 0
-934 -129 130 0
-934 -136 137 0
-934 -143 144 0
-934 -213 214 0
-934 -220 221 0
-934 -227 228 0
-940 -122 123 0
-940 -129 130 0
-940 -136 137 0
-940 -143 144 0
-940 -213 214 0
-940 -220 221 0
-940 -227 228 0
-946 -122 123 0
-946 -129 130 0
-946 -136 137 0
-946 -143 144 0
-946 -213 214 0
-946 -220 221 0
-946 -227 228 0
-952 -122 123 0
-952 -129 130 0
-952 -136 137 0
-952 -143 144 0
-952 -213 214 0
-952 -220 221 0
-952 -227 228 0
-958 -122 123 0
-958 -129 130 0
-958 -136 137 0
-958 -143 144 0
-958 -213 214 0
-958 -220 221 0
-958 -227 228 0
-964 -122 123 0
-964 -129 130 0
-964 -136 137 0
-964 -143 144 0
-964 -213 214 0
-964 -220 221 0
-964 -227 228 0
-970 -122 123 0
-970 -129 130 0
-970 -136 137 0
-970 -143 144 0
-970 -213 214 0
-970 -220 221 0
-970 -227 228 0
-976 -122 123 0
-976 -129 130 0
-976 -136 137 0
-976 -143 144 0
-976 -213 214 0
-976 -220 221 0
-976 -227 228 0
-982 -122 123 0
-982 -129 130 0
-982 -136 137 0
-982 -143 144 0
-982 -213 214 0
-982 -220 221 0
-982 -227 228 0
-988 -122 123 0
-988 -129 130 0
-988 -136 137 0
-988 -143 144 0
-988 -213 214 0
-988 -220 221 0
-988 -227 228 0
-994 -122 123 0
-994 -129 130 0
-994 -136 137 0
-994 -143 144 0
-994 -213 214 0
-994 -220 221 0
-994 -227 228 0
-1000 -122 123 0
-1000 -129 130 0
-1000 -136 137 0
-1000 -143 144 0
-1000 -213 214 0
-1000 -220 221 0
-1000 -227 228 0
-1006 -122 123 0
-1006 -129 130 0
-1006 -136 137 0
-1006 -143 144 0
-1006 -213 214 0
-1006 -220 221 0
-1006 -227 228 0
-1012 -122 123 0
-1012 -129 130 0
-1012 -136 137 0
-1012 -143 144 0
-1012 -213 214 0
-1012 -220 221 0
-1012 -227 228 0
-1018 -122 123 0
-1018 -129 130 0
-1018 -136 137 0
-1018 -143 144 0
-1018 -213 214 0
-1018 -220 221 0
-1018 -227 228 0
-1024 -122 123 0
-1024 -129 130 0
-1024 -136 137 0
-1024 -143 144 0
-1024 -213 214 0
-1024 -220 221 0
-1024 -227 228 0
-1030 -122 123 0
-1030 -129 130 0
-1030 -136 137 0
-1030 -143 144 0
-1030 -213 214 0
-1030 -220 221 0
-1030 -227 228 0
-1036 -122 123 0
-1036 -129 130 0
-1036 -136 137 0
-1036 -143 144 0
-1036 -213 214 0
-1036 -220 221 0
-1036 -227 228 0
-1042 -122 123 0
-1042 -129 130 0
-1042 -136 137 0
-1042 -143 144 0
-1042 -213 214 0
-1042 -220 221 0
-1042 -227 228 0
-1048 -122 123 0
-1048 -129 130 0
-1048 -136 137 0
-1048 -143 144 0
-1048 -213 214 0
-1048 -220 221 0
-1048 -227 228 0
-1054 -122 123 0
-1054 -129 130 0
-1054 -136 137 0
-1054 -143 144 0
-1054 -213 214 0
-1054 -220 221 0
-1054 -227 228 0
-1060 -122 123 0
-1060 -129 130 0
-1060 -136 137 0
-1060 -143 144 0
-1060 -213 214 0
-1060 -220 221 0
-1060 -227 228 0
-1066 -122 123 0
-1066 -129 130 0
-1066 -136 137 0
-1066 -143 144 0
-1066 -213 214 0
-1066 -220 221 0
-1066 -227 228 0
-1072 -122 123 0
-1072 -129 130 0
-1072 -136 137 0
-1072 -143 144 0
-1072 -213 214 0
-1072 -220 221 0
-1072 -227 228 0
-1078 -122 123 0
-1078 -129 130 0
-1078 -136 137 0
-1078 -143 144 0
-1078 -213 214 0
-1078 -220 221 0
-1078 -227 228 0
-1084 -122 123 0
-1084 -129 130 0
-1084 -136 137 0
-1084 -143 144 0
-1084 -213 214 0
-1084 -220 221 0
-1084 -227 228 0
-1090 -122 123 0
-1090 -129 130 0
-1090 -136 137 0
-1090 -143 144 0
-1090 -213 214 0
-1090 -220 221 0
-1090 -227 228 0
-1096 -122 123 0
-1096 -129 130 0
-1096 -136 137 0
-1096 -143 144 0
-1096 -213 214 0
-1096 -220 221 0
-1096 -227 228 0
-1102 -122 123 0
-1102 -129 130 0
-1102 -136 137 0
-1102 -143 144 0
-1102 -213 214 0
-1102 -220 221 0
-1102 -227 228 0
-1108 -122 123 0
-1108 -129 130 0
-1108 -136 137 0
-1108 -143 144 0
-1108 -213 214 0
-1108 -220 221 0
-1108 -227 228 0
-1114 -122 123 0
-1114 -129 130 0
-1114 -136 137 0
-1114 -143 144 0
-1114 -213 214 0
-1114 -220 221 0
-1114 -227 228 0
-1120 -122 123 0
-1120 -129 130 0
-1120 -136 137 0
-1120 -143 144 0
-1120 -213 214 0
-1120 -220 221 0
-1120 -227 228 0
-1126 -122 123 0
-1126 -129 130 0
-1126 -136 137 0
-1126 -143 144 0
-1126 -213 214 0
-1126 -220 221 0
-1126 -227 228 0
-1132 -122 123 0
-1132 -129 130 0
-1132 -136 137 0
-1132 -143 144 0
-1132 -213 214 0
-1132 -220 221 0
-1132 -227 228 0
-1138 -122 123 0
-1138 -129 130 0
-1138 -136 137 0
-1138 -143 144 0
-1138 -213 214 0
-1138 -220 221 0
-1138 -227 228 0
-1144 -122 123 0
-1144 -129 130 0
-1144 -136 137 0
-1144 -143 144 0
-1144 -213 214 0
-1144 -220 221 0
-1144 -227 228 0
-1150 -122 123 0
-1150 -129 130 0
-1150 -136 137 0
-1150 -143 144 0
-1150 -213 214 0
-1150 -220 221 0
-1150 -227 228 0
-1156 -122 123 0
-1156 -129 130 0
-1156 -136 137 0
-1156 -143 144 0
-1156 -213 214 0
-1156 -220 221 0
-1156 -227 228 0
-1162 -122 123 0
-1162 -129 130 0
-1162 -136 137 0
-1162 -143 144 0
-1162 -213 214 0
-1162 -220 221 0
-1162 -227 228 0
-1168 -122 123 0
-1168 -129 130 0
-1168 -136 137 0
-1168 -143 144 0
-1168 -213 214 0
-1168 -220 221 0
-1168 -227 228 0
-911 -4 5 0
-911 -11 12 0
-911 -18 19 0
-911 -25 26 0
-911 -32 33 0
-911 -39 40 0
-911 -151 152 0
-911 -158 159 0
-911 -165 166 0
-917 -4 5 0
-917 -11 12 0
-917 -18 19 0
-917 -25 26 0
-917 -32 33 0
-917 -39 40 0
-917 -151 152 0
-917 -158 159 0
-917 -165 166 0
-923 -4 5 0
-923 -11 12 0
-923 -18 19 0
-923 -25 26 0
-923 -32 33 0
-923 -39 40 0
-923 -151 152 0
-923 -158 159 0
-923 -165 166 0
-929 -4 5 0
-929 -11 12 0
-929 -18 19 0
-929 -25 26 0
-929 -32 33 0
-929 -39 40 0
-929 -151 152 0
-929 -158 159 0
-929 -165 166 0
-935 -4 5 0
-935 -11 12 0
-935 -18 19 0
-935 -25 26 0
-935 -32 33 0
-935 -39 40 0
-935 -151 152 0
-935 -158 159 0
-935 -165 166 0
-941 -4 5 0
-941 -11 12 0
-941 -18 19 0
-941 -25 26 0
-941 -32 33 0
-941 -39 40 0
-941 -151 152 0
-941 -158 159 0
-941 -165 166 0
-947 -4 5 0
-947 -11 12 0
-947 -18 19 0
-947 -25 26 0
-947 -32 33 0
-947 -39 40 0
-947 -151 152 0
-947 -158 159 0
-947 -165 166 0
-953 -4 5 0
-953 -11 12 0
-953 -18 19 0
-953 -25 26 0
-953 -32 33 0
-953 -39 40 0
-953 -151 152 0
-953 -158 159 0
-953 -165 166 0
-959 -4 5 0
-959 -11 12 0
-959 -18 19 0
-959 -25 26 0
-959 -32 33 0
-959 -39 40 0
-959 -151 152 0
-959 -158 159 0
-959 -165 166 0
-965 -4 5 0
-965 -11 12 0
-965 -18 19 0
-965 -25 26 0
-965 -32 33 0
-965 -39 40 0
-965 -151 152 0
-965 -158 159 0
-965 -165 166 0
-971 -4 5 0
-971 -11 12 0
-971 -18 19 0
-971 -25 26 0
-971 -32 33 0
-971 -39 40 0
-971 -151 152 0
-971 -158 159 0
-971 -165 166 0
-977 -4 5 0
-977 -11 12 0
-977 -18 19 0
-977 -25 26 0
-977 -32 33 0
-977 -39 40 0
-977 -151 152 0
-977 -158 159 0
-977 -165 166 0
-983 -4 5 0
-983 -11 12 0
-983 -18 19 0
-983 -25 26 0
-983 -32 33 0
-983 -39 40 0
-983 -151 152 0
-983 -158 159 0
-983 -165 166 0
-989 -4 5 0
-989 -11 12 0
-989 -18 19 0
-989 -25 26 0
-989 -32 33 0
-989 -39 40 0
-989 -151 152 0
-989 -158 159 0
-989 -165 166 0
-995 -4 5 0
-995 -11 12 0
-995 -18 19 0
-995 -25 26 0
-995 -32 33 0
-995 -39 40 0
-995 -151 152 0
-995 -158 159 0
-995 -165 166 0
-1001 -4 5 0
-1001 -11 12 0
-1001 -18 19 0
-1001 -25 26 0
-1001 -32 33 0
-1001 -39 40 0
-1001 -151 152 0
-1001 -158 159 0
-1001 -165 166 0
-1007 -4 5 0
-1007 -11 12 0
-1007 -18 19 0
-1007 -25 26 0
-1007 -32 33 0
-1007 -39 40 0
-1007 -151 152 0
-1007 -158 159 0
-1007 -165 166 0
-1013 -4 5 0
-1013 -11 12 0
-1013 -18 19 0
-1013 -25 26 0
-1013 -32 33 0
-1013 -39 40 0
-1013 -151 152 0
-1013 -158 159 0
-1013 -165 166 0
-1019 -4 5 0
-1019 -11 12 0
-1019 -18 19 0
-1019 -25 26 0
-1019 -32 33 0
-1019 -39 40 0
-1019 -151 152 0
-1019 -158 159 0
-1019 -165 166 0
-1025 -4 5 0
-1025 -11 12 0
-1025 -18 19 0
-1025 -25 26 0
-1025 -32 33 0
-1025 -39 40 0
-1025 -151 152 0
-1025 -158 159 0
-1025 -165 166 0
-1031 -4 5 0
-1031 -11 12 0
-1031 -18 19 0
-1031 -25 26 0
-1031 -32 33 0
-1031 -39 40 0
-1031 -151 152 0
-1031 -158 159 0
-1031 -165 166 0
-1037 -4 5 0
-1037 -11 12 0
-1037 -18 19 0
-1037 -25 26 0
-1037 -32 33 0
-1037 -39 40 0
-1037 -151 152 0
-1037 -158 159 0
-1037 -165 166 0
-1043 -4 5 0
-1043 -11 12 0
-1043 -18 19 0
-1043 -25 26 0
-1043 -32 33 0
-1043 -39 40 0
-1043 -151 152 0
-1043 -158 159 0
-1043 -165 166 0
-1049 -4 5 0
-1049 -11 12 0
-1049 -18 19 0
-1049 -25 26 0
-1049 -32 33 0
-1049 -39 40 0
-1049 -151 152 0
-1049 -158 159 0
-1049 -165 166 0
-1055 -4 5 0
-1055 -11 12 0
-1055 -18 19 0
-1055 -25 26 0
-1055 -32 33 0
-1055 -39 40 0
-1055 -151 152 0
-1055 -158 159 0
-1055 -165 166 0
-1061 -4 5 0
-1061 -11 12 0
-1061 -18 19 0
-1061 -25 26 0
-1061 -32 33 0
-1061 -39 40 0
-1061 -151 152 0
-1061 -158 159 0
-1061 -165 166 0
-1067 -4 5 0
-1067 -11 12 0
-1067 -18 19 0
-1067 -25 26 0
-1067 -32 33 0
-1067 -39 40 0
-1067 -151 152 0
-1067 -158 159 0
-1067 -165 166 0
-1073 -4 5 0
-1073 -11 12 0
-1073 -18 19 0
-1073 -25 26 0
-1073 -32 33 0
-1073 -39 40 0
-1073 -151 152 0
-1073 -158 159 0
-1073 -165 166 0
-1079 -4 5 0
-1079 -11 12 0
-1079 -18 19 0
-1079 -25 26 0
-1079 -32 33 0
-1079 -39 40 0
-1079 -151 152 0
-1079 -158 159 0
-1079 -165 166 0
-1085 -4 5 0
-1085 -11 12 0
-1085 -18 19 0
-1085 -25 26 0
-1085 -32 33 0
-1085 -39 40 0
-1085 -151 152 0
-1085 -158 159 0
-1085 -165 166 0
-1091 -4 5 0
-1091 -11 12 0
-1091 -18 19 0
-1091 -25 26 0
-1091 -32 33 0
-1091 -39 40 0
-1091 -151 152 0
-1091 -158 159 0
-1091 -165 166 0
-1097 -4 5 0
-1097 -11 12 0
-1097 -18 19 0
-1097 -25 26 0
-1097 -32 33 0
-1097 -39 40 0
-1097 -151 152 0
-1097 -158 159 0
-1097 -165 166 0
-1103 -4 5 0
-1103 -11 12 0
-1103 -18 19 0
-1103 -25 26 0
-1103 -32 33 0
-1103 -39 40 0
-1103 -151 152 0
-1103 -158 159 0
-1103 -165 166 0
-1109 -4 5 0
-1109 -11 12 0
-1109 -18 19 0
-1109 -25 26 0
-1109 -32 33 0
-1109 -39 40 0
-1109 -151 152 0
-1109 -158 159 0
-1109 -165 166 0
-1115 -4 5 0
-1115 -11 12 0
-1115 -18 19 0
-1115 -25 26 0
-1115 -32 33 0
-1115 -39 40 0
-1115 -151 152 0
-1115 -158 159 0
-1115 -165 166 0
-1121 -4 5 0
-1121 -11 12 0
-1121 -18 19 0
-1121 -25 26 0
-1121 -32 33 0
-1121 -39 40 0
-1121 -151 152 0
-1121 -158 159 0
-1121 -165 166 0
-1127 -4 5 0
-1127 -11 12 0
-1127 -18 19 0
-1127 -25 26 0
-1127 -32 33 0
-1127 -39 40 0
-1127 -151 152 0
-1127 -158 159 0
-1127 -165 166 0
-1133 -4 5 0
-1133 -11 12 0
-1133 -18 19 0
-1133 -25 26 0
-1133 -32 33 0
-1133 -39 40 0
-1133 -151 152 0
-1133 -158 159 0
-1133 -165 166 0
-1139 -4 5 0
-1139 -11 12 0
-1139 -18 19 0
-1139 -25 26 0
-1139 -32 33 0
-1139 -39 40 0
-1139 -151 152 0
-1139 -158 159 0
-1139 -165 166 0
-1145 -4 5 0
-1145 -11 12 0
-1145 -18 19 0
-1145 -25 26 0
-1145 -32 33 0
-1145 -39 40 0
-1145 -151 152 0
-1145 -158 159 0
-1145 -165 166 0
-1151 -4 5 0
-1151 -11 12 0
-1151 -18 19 0
-1151 -25 26 0
-1151 -32 33 0
-1151 -39 40 0
-1151 -151 152 0
-1151 -158 159 0
-1151 -165 166 0
-1157 -4 5 0
-1157 -11 12 0
-1157 -18 19 0
-1157 -25 26 0
-1157 -32 33 0
-1157 -39 40 0
-1157 -151 152 0
-1157 -158 159 0
-1157 -165 166 0
-1163 -4 5 0
-1163 -11 12 0
-1163 -18 19 0
-1163 -25 26 0
-1163 -32 33 0
-1163 -39 40 0
-1163 -151 152 0
-1163 -158 159 0
-1163 -165 166 0
-1169 -4 5 0
-1169 -11 12 0
-1169 -18 19 0
-1169 -25 26 0
-1169 -32 33 0
-1169 -39 40 0
-1169 -151 152 0
-1169 -158 159 0
-1169 -165 166 0
-1175 -4 5 0
-1175 -11 12 0
-1175 -18 19 0
-1175 -25 26 0
-1175 -32 33 0
-1175 -39 40 0
-1175 -151 152 0
-1175 -158 159 0
-1175 -165 166 0
-1181 -4 5 0
-1181 -11 12 0
-1181 -18 19 0
-1181 -25 26 0
-1181 -32 33 0
-1181 -39 40 0
-1181 -151 152 0
-1181 -158 159 0
-1181 -165 166 0
-1187 -4 5 0
-1187 -11 12 0
-1187 -18 19 0
-1187 -25 26 0
-1187 -32 33 0
-1187 -39 40 0
-1187 -151 152 0
-1187 -158 159 0
-1187 -165 166 0
-1193 -4 5 0
-1193 -11 12 0
-1193 -18 19 0
-1193 -25 26 0
-1193 -32 33 0
-1193 -39 40 0
-1193 -151 152 0
-1193 -158 159 0
-1193 -165 166 0
-1199 -4 5 0
-1199 -11 12 0
-1199 -18 19 0
-1199 -25 26 0
-1199 -32 33 0
-1199 -39 40 0
-1199 -151 152 0
-1199 -158 159 0
-1199 -165 166 0
-1205 -4 5 0
-1205 -11 12 0
-1205 -18 19 0
-1205 -25 26 0
-1205 -32 33 0
-1205 -39 40 0
-1205 -151 152 0
-1205 -158 159 0
-1205 -165 166 0
-1211 -4 5 0
-1211 -11 12 0
-1211 -18 19 0
-1211 -25 26 0
-1211 -32 33 0
-1211 -39 40 0
-1211 -151 152 0
-1211 -158 159 0
-1211 -165 166 0
-1217 -4 5 0
-1217 -11 12 0
-1217 -18 19 0
-1217 -25 26 0
-1217 -32 33 0
-1217 -39 40 0
-1217 -151 152 0
-1217 -158 159 0
-1217 -165 166 0
-1223 -4 5 0
-1223 -11 12 0
-1223 -18 19 0
-1223 -25 26 0
-1223 -32 33 0
-1223 -39 40 0
-1223 -151 152 0
-1223 -158 159 0
-1223 -165 166 0
-1229 -4 5 0
-1229 -11 12 0
-1229 -18 19 0
-1229 -25 26 0
-1229 -32 33 0
-1229 -39 40 0
-1229 -151 152 0
-1229 -158 159 0
-1229 -165 166 0
-1235 -4 5 0
-1235 -11 12 0
-1235 -18 19 0
-1235 -25 26 0
-1235 -32 33 0
-1235 -39 40 0
-1235 -151 152 0
-1235 -158 159 0
-1235 -165 166 0
-1241 -4 5 0
-1241 -11 12 0
-1241 -18 19 0
-1241 -25 26 0
-1241 -32 33 0
-1241 -39 40 0
-1241 -151 152 0
-1241 -158 159 0
-1241 -165 166 0
-1247 -4 5 0
-1247 -11 12 0
-1247 -18 19 0
-1247 -25 26 0
-1247 -32 33 0
-1247 -39 40 0
-1247 -151 152 0
-1247 -158 159 0
-1247 -165 166 0
-1253 -4 5 0
-1253 -11 12 0
-1253 -18 19 0
-1253 -25 26 0
-1253 -32 33 0
-1253 -39 40 0
-1253 -151 152 0
-1253 -158 159 0
-1253 -165 166 0
-1259 -4 5 0
-1259 -11 12 0
-1259 -18 19 0
-1259 -25 26 0
-1259 -32 33 0
-1259 -39 40 0
-1259 -151 152 0
-1259 -158 159 0
-1259 -165 166 0
-1265 -4 5 0
-1265 -11 12 0
-1265 -18 19 0
-1265 -25 26 0
-1265 -32 33 0
-1265 -39 40 0
-1265 -151 152 0
-1265 -158 159 0
-1265 -165 166 0
-767 -46 47 0
-767 -53 54 0
-767 -60 61 0
-767 -67 68 0
-767 -74 75 0
-767 -81 82 0
-767 -172 173 0
-767 -179 180 0
-767 -186 187 0
-773 -46 47 0
-773 -53 54 0
-773 -60 61 0
-773 -67 68 0
-773 -74 75 0
-773 -81 82 0
-773 -172 173 0
-773 -179 180 0
-773 -186 187 0
-779 -46 47 0
-779 -53 54 0
-779 -60 61 0
-779 -67 68 0
-779 -74 75 0
-779 -81 82 0
-779 -172 173 0
-779 -179 180 0
-779 -186 187 0
-785 -46 47 0
-785 -53 54 0
-785 -60 61 0
-785 -67 68 0
-785 -74 75 0
-785 -81 82 0
-785 -172 173 0
-785 -179 180 0
-785 -186 187 0
-791 -46 47 0
-791 -53 54 0
-791 -60 61 0
-791 -67 68 0
-791 -74 75 0
-791 -81 82 0
-791 -172 173 0
-791 -179 180 0
-791 -186 187 0
-797 -46 47 0
-797 -53 54 0
-797 -60 61 0
-797 -67 68 0
-797 -74 75 0
-797 -81 82 0
-797 -172 173 0
-797 -179 180 0
-797 -186 187 0
-803 -46 47 0
-803 -53 54 0
-803 -60 61 0
-803 -67 68 0
-803 -74 75 0
-803 -81 82 0
-803 -172 173 0
-803 -179 180 0
-803 -186 187 0
-809 -46 47 0
-809 -53 54 0
-809 -60 61 0
-809 -67 68 0
-809 -74 75 0
-809 -81 82 0
-809 -172 173 0
-809 -179 180 0
-809 -186 187 0
-815 -46 47 0
-815 -53 54 0
-815 -60 61 0
-815 -67 68 0
-815 -74 75 0
-815 -81 82 0
-815 -172 173 0
-815 -179 180 0
-815 -186 187 0
-821 -46 47 0
-821 -53 54 0
-821 -60 61 0
-821 -67 68 0
-821 -74 75 0
-821 -81 82 0
-821 -172 173 0
-821 -179 180 0
-821 -186 187 0
-827 -46 47 0
-827 -53 54 0
-827 -60 61 0
-827 -67 68 0
-827 -74 75 0
-827 -81 82 0
-827 -172 173 0
-827 -179 180 0
-827 -186 187 0
-833 -46 47 0
-833 -53 54 0
-833 -60 61 0
-833 -67 68 0
-833 -74 75 0
-833 -81 82 0
-833 -172 173 0
-833 -179 180 0
-833 -186 187 0
-839 -46 47 0
-839 -53 54 0
-839 -60 61 0
-839 -67 68 0
-839 -74 75 0
-839 -81 82 0
-839 -172 173 0
-839 -179 180 0
-839 -186 187 0
-845 -46 47 0
-845 -53 54 0
-845 -60 61 0
-845 -67 68 0
-845 -74 75 0
-845 -81 82 0
-845 -172 173 0
-845 -179 180 0
-845 -186 187 0
-851 -46 47 0
-851 -53 54 0
-851 -60 61 0
-851 -67 68 0
-851 -74 75 0
-851 -81 82 0
-851 -172 173 0
-851 -179 180 0
-851 -186 187 0
-857 -46 47 0
-857 -53 54 0
-857 -60 61 0
-857 -67 68 0
-857 -74 75 0
-857 -81 82 0
-857 -172 173 0
-857 -179 180 0
-857 -186 187 0
-863 -46 47 0
-863 -53 54 0
-863 -60 61 0
-863 -67 68 0
-863 -74 75 0
-863 -81 82 0
-863 -172 173 0
-863 -179 180 0
-863 -186 187 0
-869 -46 47 0
-869 -53 54 0
-869 -60 61 0
-869 -67 68 0
-869 -74 75 0
-869 -81 82 0
-869 -172 173 0
-869 -179 180 0
-869 -186 187 0
-875 -46 47 0
-875 -53 54 0
-875 -60 61 0
-875 -67 68 0
-875 -74 75 0
-875 -81 82 0
-875 -172 173 0
-875 -179 180 0
-875 -186 187 0
-881 -46 47 0
-881 -53 54 0
-881 -60 61 0
-881 -67 68 0
-881 -74 75 0
-881 -81 82 0
-881 -172 173 0
-881 -179 180 0
-881 -186 187 0
-887 -46 47 0
-887 -53 54 0
-887 -60 61 0
-887 -67 68 0
-887 -74 75 0
-887 -81 82 0
-887 -172 173 0
-887 -179 180 0
-887 -186 187 0
-893 -46 47 0
-893 -53 54 0
-893 -60 61 0
-893 -67 68 0
-893 -74 75 0
-893 -81 82 0
-893 -172 173 0
-893 -179 180 0
-893 -186 187 0
-899 -46 47 0
-899 -53 54 0
-899 -60 61 0
-899 -67 68 0
-899 -74 75 0
-899 -81 82 0
-899 -172 173 0
-899 -179 180 0
-899 -186 187 0
-905 -46 47 0
-905 -53 54 0
-905 -60 61 0
-905 -67 68 0
-905 -74 75 0
-905 -81 82 0
-905 -172 173 0
-905 -179 180 0
-905 -186 187 0
-1055 -46 47 0
-1055 -53 54 0
-1055 -60 61 0
-1055 -67 68 0
-1055 -74 75 0
-1055 -81 82 0
-1055 -172 173 0
-1055 -179 180 0
-1055 -186 187 0
-1061 -46 47 0
-1061 -53 54 0
-1061 -60 61 0
-1061 -67 68 0
-1061 -74 75 0
-1061 -81 82 0
-1061 -172 173 0
-1061 -179 180 0
-1061 -186 187 0
-1067 -46 47 0
-1067 -53 54 0
-1067 -60 61 0
-1067 -67 68 0
-1067 -74 75 0
-1067 -81 82 0
-1067 -172 173 0
-1067 -179 180 0
-1067 -186 187 0
-1073 -46 47 0
-1073 -53 54 0
-1073 -60 61 0
-1073 -67 68 0
-1073 -74 75 0
-1073 -81 82 0
-1073 -172 173 0
-1073 -179 180 0
-1073 -186 187 0
-1079 -46 47 0
-1079 -53 54 0
-1079 -60 61 0
-1079 -67 68 0
-1079 -74 75 0
-1079 -81 82 0
-1079 -172 173 0
-1079 -179 180 0
-1079 -186 187 0
-1085 -46 47 0
-1085 -53 54 0
-1085 -60 61 0
-1085 -67 68 0
-1085 -74 75 0
-1085 -81 82 0
-1085 -172 173 0
-1085 -179 180 0
-1085 -186 187 0
-1091 -46 47 0
-1091 -53 54 0
-1091 -60 61 0
-1091 -67 68 0
-1091 -74 75 0
-1091 -81 82 0
-1091 -172 173 0
-1091 -179 180 0
-1091 -186 187 0
-1097 -46 47 0
-1097 -53 54 0
-1097 -60 61 0
-1097 -67 68 0
-1097 -74 75 0
-1097 -81 82 0
-1097 -172 173 0
-1097 -179 180 0
-1097 -186 187 0
-1103 -46 47 0
-1103 -53 54 0
-1103 -60 61 0
-1103 -67 68 0
-1103 -74 75 0
-1103 -81 82 0
-1103 -172 173 0
-1103 -179 180 0
-1103 -186 187 0
-1109 -46 47 0
-1109 -53 54 0
-1109 -60 61 0
-1109 -67 68 0
-1109 -74 75 0
-1109 -81 82 0
-1109 -172 173 0
-1109 -179 180 0
-1109 -186 187 0
-1115 -46 47 0
-1115 -53 54 0
-1115 -60 61 0
-1115 -67 68 0
-1115 -74 75 0
-1115 -81 82 0
-1115 -172 173 0
-1115 -179 180 0
-1115 -186 187 0
-1121 -46 47 0
-1121 -53 54 0
-1121 -60 61 0
-1121 -67 68 0
-1121 -74 75 0
-1121 -81 82 0
-1121 -172 173 0
-1121 -179 180 0
-1121 -186 187 0
-1127 -46 47 0
-1127 -53 54 0
-1127 -60 61 0
-1127 -67 68 0
-1127 -74 75 0
-1127 -81 82 0
-1127 -172 173 0
-1127 -179 180 0
-1127 -186 187 0
-1133 -46 47 0
-1133 -53 54 0
-1133 -60 61 0
-1133 -67 68 0
-1133 -74 75 0
-1133 -81 82 0
-1133 -172 173 0
-1133 -179 180 0
-1133 -186 187 0
-1139 -46 47 0
-1139 -53 54 0
-1139 -60 61 0
-1139 -67 68 0
-1139 -74 75 0
-1139 -81 82 0
-1139 -172 173 0
-1139 -179 180 0
-1139 -186 187 0
-1145 -46 47 0
-1145 -53 54 0
-1145 -60 61 0
-1145 -67 68 0
-1145 -74 75 0
-1145 -81 82 0
-1145 -172 173 0
-1145 -179 180 0
-1145 -186 187 0
-1151 -46 47 0
-1151 -53 54 0
-1151 -60 61 0
-1151 -67 68 0
-1151 -74 75 0
-1151 -81 82 0
-1151 -172 173 0
-1151 -179 180 0
-1151 -186 187 0
-1157 -46 47 0
-1157 -53 54 0
-1157 -60 61 0
-1157 -67 68 0
-1157 -74 75 0
-1157 -81 82 0
-1157 -172 173 0
-1157 -179 180 0
-1157 -186 187 0
-1163 -46 47 0
-1163 -53 54 0
-1163 -60 61 0
-1163 -67 68 0
-1163 -74 75 0
-1163 -81 82 0
-1163 -172 173 0
-1163 -179 180 0
-1163 -186 187 0
-1169 -46 47 0
-1169 -53 54 0
-1169 -60 61 0
-1169 -67 68 0
-1169 -74 75 0
-1169 -81 82 0
-1169 -172 173 0
-1169 -179 180 0
-1169 -186 187 0
-1175 -46 47 0
-1175 -53 54 0
-1175 -60 61 0
-1175 -67 68 0
-1175 -74 75 0
-1175 -81 82 0
-1175 -172 173 0
-1175 -179 180 0
-1175 -186 187 0
-1181 -46 47 0
-1181 -53 54 0
-1181 -60 61 0
-1181 -67 68 0
-1181 -74 75 0
-1181 -81 82 0
-1181 -172 173 0
-1181 -179 180 0
-1181 -186 187 0
-1187 -46 47 0
-1187 -53 54 0
-1187 -60 61 0
-1187 -67 68 0
-1187 -74 75 0
-1187 -81 82 0
-1187 -172 173 0
-1187 -179 180 0
-1187 -186 187 0
-1193 -46 47 0
-1193 -53 54 0
-1193 -60 61 0
-1193 -67 68 0
-1193 -74 75 0
-1193 -81 82 0
-1193 -172 173 0
-1193 -179 180 0
-1193 -186 187 0
-1199 -46 47 0
-1199 -53 54 0
-1199 -60 61 0
-1199 -67 68 0
-1199 -74 75 0
-1199 -81 82 0
-1199 -172 173 0
-1199 -179 180 0
-1199 -186 187 0
-1205 -46 47 0
-1205 -53 54 0
-1205 -60 61 0
-1205 -67 68 0
-1205 -74 75 0
-1205 -81 82 0
-1205 -172 173 0
-1205 -179 180 0
-1205 -186 187 0
-1211 -46 47 0
-1211 -53 54 0
-1211 -60 61 0
-1211 -67 68 0
-1211 -74 75 0
-1211 -81 82 0
-1211 -172 173 0
-1211 -179 180 0
-1211 -186 187 0
-1217 -46 47 0
-1217 -53 54 0
-1217 -60 61 0
-1217 -67 68 0
-1217 -74 75 0
-1217 -81 82 0
-1217 -172 173 0
-1217 -179 180 0
-1217 -186 187 0
-1223 -46 47 0
-1223 -53 54 0
-1223 -60 61 0
-1223 -67 68 0
-1223 -74 75 0
-1223 -81 82 0
-1223 -172 173 0
-1223 -179 180 0
-1223 -186 187 0
-1229 -46 47 0
-1229 -53 54 0
-1229 -60 61 0
-1229 -67 68 0
-1229 -74 75 0
-1229 -81 82 0
-1229 -172 173 0
-1229 -179 180 0
-1229 -186 187 0
-1235 -46 47 0
-1235 -53 54 0
-1235 -60 61 0
-1235 -67 68 0
-1235 -74 75 0
-1235 -81 82 0
-1235 -172 173 0
-1235 -179 180 0
-1235 -186 187 0
-1241 -46 47 0
-1241 -53 54 0
-1241 -60 61 0
-1241 -67 68 0
-1241 -74 75 0
-1241 -81 82 0
-1241 -172 173 0
-1241 -179 180 0
-1241 -186 187 0
-1247 -46 47 0
-1247 -53 54 0
-1247 -60 61 0
-1247 -67 68 0
-1247 -74 75 0
-1247 -81 82 0
-1247 -172 173 0
-1247 -179 180 0
-1247 -186 187 0
-1253 -46 47 0
-1253 -53 54 0
-1253 -60 61 0
-1253 -67 68 0
-1253 -74 75 0
-1253 -81 82 0
-1253 -172 173 0
-1253 -179 180 0
-1253 -186 187 0
-1259 -46 47 0
-1259 -53 54 0
-1259 -60 61 0
-1259 -67 68 0
-1259 -74 75 0
-1259 -81 82 0
-1259 -172 173 0
-1259 -179 180 0
-1259 -186 187 0
-1265 -46 47 0
-1265 -53 54 0
-1265 -60 61 0
-1265 -67 68 0
-1265 -74 75 0
-1265 -81 82 0
-1265 -172 173 0
-1265 -179 180 0
-1265 -186 187 0
-767 -88 89 0
-767 -95 96 0
-767 -102 103 0
-767 -109 110 0
-767 -116 117 0
-767 -193 194 0
-767 -200 201 0
-767 -207 208 0
-773 -88 89 0
-773 -95 96 0
-773 -102 103 0
-773 -109 110 0
-773 -116 117 0
-773 -193 194 0
-773 -200 201 0
-773 -207 208 0
-779 -88 89 0
-779 -95 96 0
-779 -102 103 0
-779 -109 110 0
-779 -116 117 0
-779 -193 194 0
-779 -200 201 0
-779 -207 208 0
-785 -88 89 0
-785 -95 96 0
-785 -102 103 0
-785 -109 110 0
-785 -116 117 0
-785 -193 194 0
-785 -200 201 0
-785 -207 208 0
-791 -88 89 0
-791 -95 96 0
-791 -102 103 0
-791 -109 110 0
-791 -116 117 0
-791 -193 194 0
-791 -200 201 0
-791 -207 208 0
-797 -88 89 0
-797 -95 96 0
-797 -102 103 0
-797 -109 110 0
-797 -116 117 0
-797 -193 194 0
-797 -200 201 0
-797 -207 208 0
-803 -88 89 0
-803 -95 96 0
-803 -102 103 0
-803 -109 110 0
-803 -116 117 0
-803 -193 194 0
-803 -200 201 0
-803 -207 208 0
-809 -88 89 0
-809 -95 96 0
-809 -102 103 0
-809 -109 110 0
-809 -116 117 0
-809 -193 194 0
-809 -200 201 0
-809 -207 208 0
-815 -88 89 0
-815 -95 96 0
-815 -102 103 0
-815 -109 110 0
-815 -116 117 0
-815 -193 194 0
-815 -200 201 0
-815 -207 208 0
-821 -88 89 0
-821 -95 96 0
-821 -102 103 0
-821 -109 110 0
-821 -116 117 0
-821 -193 194 0
-821 -200 201 0
-821 -207 208 0
-827 -88 89 0
-827 -95 96 0
-827 -102 103 0
-827 -109 110 0
-827 -116 117 0
-827 -193 194 0
-827 -200 201 0
-827 -207 208 0
-833 -88 89 0
-833 -95 96 0
-833 -102 103 0
-833 -109 110 0
-833 -116 117 0
-833 -193 194 0
-833 -200 201 0
-833 -207 208 0
-839 -88 89 0
-839 -95 96 0
-839 -102 103 0
-839 -109 110 0
-839 -116 117 0
-839 -193 194 0
-839 -200 201 0
-839 -207 208 0
-845 -88 89 0
-845 -95 96 0
-845 -102 103 0
-845 -109 110 0
-845 -116 117 0
-845 -193 194 0
-845 -200 201 0
-845 -207 208 0
-851 -88 89 0
-851 -95 96 0
-851 -102 103 0
-851 -109 110 0
-851 -116 117 0
-851 -193 194 0
-851 -200 201 0
-851 -207 208 0
-857 -88 89 0
-857 -95 96 0
-857 -102 103 0
-857 -109 110 0
-857 -116 117 0
-857 -193 194 0
-857 -200 201 0
-857 -207 208 0
-863 -88 89 0
-863 -95 96 0
-863 -102 103 0
-863 -109 110 0
-863 -116 117 0
-863 -193 194 0
-863 -200 201 0
-863 -207 208 0
-869 -88 89 0
-869 -95 96 0
-869 -102 103 0
-869 -109 110 0
-869 -116 117 0
-869 -193 194 0
-869 -200 201 0
-869 -207 208 0
-875 -88 89 0
-875 -95 96 0
-875 -102 103 0
-875 -109 110 0
-875 -116 117 0
-875 -193 194 0
-875 -200 201 0
-875 -207 208 0
-881 -88 89 0
-881 -95 96 0
-881 -102 103 0
-881 -109 110 0
-881 -116 117 0
-881 -193 194 0
-881 -200 201 0
-881 -207 208 0
-887 -88 89 0
-887 -95 96 0
-887 -102 103 0
-887 -109 110 0
-887 -116 117 0
-887 -193 194 0
-887 -200 201 0
-887 -207 208 0
-893 -88 89 0
-893 -95 96 0
-893 -102 103 0
-893 -109 110 0
-893 -116 117 0
-893 -193 194 0
-893 -200 201 0
-893 -207 208 0
-899 -88 89 0
-899 -95 96 0
-899 -102 103 0
-899 -109 110 0
-899 -116 117 0
-899 -193 194 0
-899 -200 201 0
-899 -207 208 0
-905 -88 89 0
-905 -95 96 0
-905 -102 103 0
-905 -109 110 0
-905 -116 117 0
-905 -193 194 0
-905 -200 201 0
-905 -207 208 0
-911 -88 89 0
-911 -95 96 0
-911 -102 103 0
-911 -109 110 0
-911 -116 117 0
-911 -193 194 0
-911 -200 201 0
-911 -207 208 0
-917 -88 89 0
-917 -95 96 0
-917 -102 103 0
-917 -109 110 0
-917 -116 117 0
-917 -193 194 0
-917 -200 201 0
-917 -207 208 0
-923 -88 89 0
-923 -95 96 0
-923 -102 103 0
-923 -109 110 0
-923 -116 117 0
-923 -193 194 0
-923 -200 201 0
-923 -207 208 0
-929 -88 89 0
-929 -95 96 0
-929 -102 103 0
-929 -109 110 0
-929 -116 117 0
-929 -193 194 0
-929 -200 201 0
-929 -207 208 0
-935 -88 89 0
-935 -95 96 0
-935 -102 103 0
-935 -109 110 0
-935 -116 117 0
-935 -193 194 0
-935 -200 201 0
-935 -207 208 0
-941 -88 89 0
-941 -95 96 0
-941 -102 103 0
-941 -109 110 0
-941 -116 117 0
-941 -193 194 0
-941 -200 201 0
-941 -207 208 0
-947 -88 89 0
-947 -95 96 0
-947 -102 103 0
-947 -109 110 0
-947 -116 117 0
-947 -193 194 0
-947 -200 201 0
-947 -207 208 0
-953 -88 89 0
-953 -95 96 0
-953 -102 103 0
-953 -109 110 0
-953 -116 117 0
-953 -193 194 0
-953 -200 201 0
-953 -207 208 0
-959 -88 89 0
-959 -95 96 0
-959 -102 103 0
-959 -109 110 0
-959 -116 117 0
-959 -193 194 0
-959 -200 201 0
-959 -207 208 0
-965 -88 89 0
-965 -95 96 0
-965 -102 103 0
-965 -109 110 0
-965 -116 117 0
-965 -193 194 0
-965 -200 201 0
-965 -207 208 0
-971 -88 89 0
-971 -95 96 0
-971 -102 103 0
-971 -109 110 0
-971 -116 117 0
-971 -193 194 0
-971 -200 201 0
-971 -207 208 0
-977 -88 89 0
-977 -95 96 0
-977 -102 103 0
-977 -109 110 0
-977 -116 117 0
-977 -193 194 0
-977 -200 201 0
-977 -207 208 0
-983 -88 89 0
-983 -95 96 0
-983 -102 103 0
-983 -109 110 0
-983 -116 117 0
-983 -193 194 0
-983 -200 201 0
-983 -207 208 0
-989 -88 89 0
-989 -95 96 0
-989 -102 103 0
-989 -109 110 0
-989 -116 117 0
-989 -193 194 0
-989 -200 201 0
-989 -207 208 0
-995 -88 89 0
-995 -95 96 0
-995 -102 103 0
-995 -109 110 0
-995 -116 117 0
-995 -193 194 0
-995 -200 201 0
-995 -207 208 0
-1001 -88 89 0
-1001 -95 96 0
-1001 -102 103 0
-1001 -109 110 0
-1001 -116 117 0
-1001 -193 194 0
-1001 -200 201 0
-1001 -207 208 0
-1007 -88 89 0
-1007 -95 96 0
-1007 -102 103 0
-1007 -109 110 0
-1007 -116 117 0
-1007 -193 194 0
-1007 -200 201 0
-1007 -207 208 0
-1013 -88 89 0
-1013 -95 96 0
-1013 -102 103 0
-1013 -109 110 0
-1013 -116 117 0
-1013 -193 194 0
-1013 -200 201 0
-1013 -207 208 0
-1019 -88 89 0
-1019 -95 96 0
-1019 -102 103 0
-1019 -109 110 0
-1019 -116 117 0
-1019 -193 194 0
-1019 -200 201 0
-1019 -207 208 0
-1025 -88 89 0
-1025 -95 96 0
-1025 -102 103 0
-1025 -109 110 0
-1025 -116 117 0
-1025 -193 194 0
-1025 -200 201 0
-1025 -207 208 0
-1031 -88 89 0
-1031 -95 96 0
-1031 -102 103 0
-1031 -109 110 0
-1031 -116 117 0
-1031 -193 194 0
-1031 -200 201 0
-1031 -207 208 0
-1037 -88 89 0
-1037 -95 96 0
-1037 -102 103 0
-1037 -109 110 0
-1037 -116 117 0
-1037 -193 194 0
-1037 -200 201 0
-1037 -207 208 0
-1043 -88 89 0
-1043 -95 96 0
-1043 -102 103 0
-1043 -109 110 0
-1043 -116 117 0
-1043 -193 194 0
-1043 -200 201 0
-1043 -207 208 0
-1049 -88 89 0
-1049 -95 96 0
-1049 -102 103 0
-1049 -109 110 0
-1049 -116 117 0
-1049 -193 194 0
-1049 -200 201 0
-1049 -207 208 0
-1175 -88 89 0
-1175 -95 96 0
-1175 -102 103 0
-1175 -109 110 0
-1175 -116 117 0
-1175 -193 194 0
-1175 -200 201 0
-1175 -207 208 0
-1181 -88 89 0
-1181 -95 96 0
-1181 -102 103 0
-1181 -109 110 0
-1181 -116 117 0
-1181 -193 194 0
-1181 -200 201 0
-1181 -207 208 0
-1187 -88 89 0
-1187 -95 96 0
-1187 -102 103 0
-1187 -109 110 0
-1187 -116 117 0
-1187 -193 194 0
-1187 -200 201 0
-1187 -207 208 0
-1193 -88 89 0
-1193 -95 96 0
-1193 -102 103 0
-1193 -109 110 0
-1193 -116 117 0
-1193 -193 194 0
-1193 -200 201 0
-1193 -207 208 0
-1199 -88 89 0
-1199 -95 96 0
-1199 -102 103 0
-1199 -109 110 0
-1199 -116 117 0
-1199 -193 194 0
-1199 -200 201 0
-1199 -207 208 0
-1205 -88 89 0
-1205 -95 96 0
-1205 -102 103 0
-1205 -109 110 0
-1205 -116 117 0
-1205 -193 194 0
-1205 -200 201 0
-1205 -207 208 0
-1211 -88 89 0
-1211 -95 96 0
-1211 -102 103 0
-1211 -109 110 0
-1211 -116 117 0
-1211 -193 194 0
-1211 -200 201 0
-1211 -207 208 0
-1217 -88 89 0
-1217 -95 96 0
-1217 -102 103 0
-1217 -109 110 0
-1217 -116 117 0
-1217 -193 194 0
-1217 -200 201 0
-1217 -207 208 0
-1223 -88 89 0
-1223 -95 96 0
-1223 -102 103 0
-1223 -109 110 0
-1223 -116 117 0
-1223 -193 194 0
-1223 -200 201 0
-1223 -207 208 0
-1229 -88 89 0
-1229 -95 96 0
-1229 -102 103 0
-1229 -109 110 0
-1229 -116 117 0
-1229 -193 194 0
-1229 -200 201 0
-1229 -207 208 0
-1235 -88 89 0
-1235 -95 96 0
-1235 -102 103 0
-1235 -109 110 0
-1235 -116 117 0
-1235 -193 194 0
-1235 -200 201 0
-1235 -207 208 0
-1241 -88 89 0
-1241 -95 96 0
-1241 -102 103 0
-1241 -109 110 0
-1241 -116 117 0
-1241 -193 194 0
-1241 -200 201 0
-1241 -207 208 0
-1247 -88 89 0
-1247 -95 96 0
-1247 -102 103 0
-1247 -109 110 0
-1247 -116 117 0
-1247 -193 194 0
-1247 -200 201 0
-1247 -207 208 0
-1253 -88 89 0
-1253 -95 96 0
-1253 -102 103 0
-1253 -109 110 0
-1253 -116 117 0
-1253 -193 194 0
-1253 -200 201 0
-1253 -207 208 0
-1259 -88 89 0
-1259 -95 96 0
-1259 -102 103 0
-1259 -109 110 0
-1259 -116 117 0
-1259 -193 194 0
-1259 -200 201 0
-1259 -207 208 0
-1265 -88 89 0
-1265 -95 96 0
-1265 -102 103 0
-1265 -109 110 0
-1265 -116 117 0
-1265 -193 194 0
-1265 -200 201 0
-1265 -207 208 0
-767 -123 124 0
-767 -130 131 0
-767 -137 138 0
-767 -144 145 0
-767 -214 215 0
-767 -221 222 0
-767 -228 229 0
-773 -123 124 0
-773 -130 131 0
-773 -137 138 0
-773 -144 145 0
-773 -214 215 0
-773 -221 222 0
-773 -228 229 0
-779 -123 124 0
-779 -130 131 0
-779 -137 138 0
-779 -144 145 0
-779 -214 215 0
-779 -221 222 0
-779 -228 229 0
-785 -123 124 0
-785 -130 131 0
-785 -137 138 0
-785 -144 145 0
-785 -214 215 0
-785 -221 222 0
-785 -228 229 0
-791 -123 124 0
-791 -130 131 0
-791 -137 138 0
-791 -144 145 0
-791 -214 215 0
-791 -221 222 0
-791 -228 229 0
-797 -123 124 0
-797 -130 131 0
-797 -137 138 0
-797 -144 145 0
-797 -214 215 0
-797 -221 222 0
-797 -228 229 0
-803 -123 124 0
-803 -130 131 0
-803 -137 138 0
-803 -144 145 0
-803 -214 215 0
-803 -221 222 0
-803 -228 229 0
-809 -123 124 0
-809 -130 131 0
-809 -137 138 0
-809 -144 145 0
-809 -214 215 0
-809 -221 222 0
-809 -228 229 0
-815 -123 124 0
-815 -130 131 0
-815 -137 138 0
-815 -144 145 0
-815 -214 215 0
-815 -221 222 0
-815 -228 229 0
-821 -123 124 0
-821 -130 131 0
-821 -137 138 0
-821 -144 145 0
-821 -214 215 0
-821 -221 222 0
-821 -228 229 0
-827 -123 124 0
-827 -130 131 0
-827 -137 138 0
-827 -144 145 0
-827 -214 215 0
-827 -221 222 0
-827 -228 229 0
-833 -123 124 0
-833 -130 131 0
-833 -137 138 0
-833 -144 145 0
-833 -214 215 0
-833 -221 222 0
-833 -228 229 0
-839 -123 124 0
-839 -130 131 0
-839 -137 138 0
-839 -144 145 0
-839 -214 215 0
-839 -221 222 0
-839 -228 229 0
-845 -123 124 0
-845 -130 131 0
-845 -137 138 0
-845 -144 145 0
-845 -214 215 0
-845 -221 222 0
-845 -228 229 0
-851 -123 124 0
-851 -130 131 0
-851 -137 138 0
-851 -144 145 0
-851 -214 215 0
-851 -221 222 0
-851 -228 229 0
-857 -123 124 0
-857 -130 131 0
-857 -137 138 0
-857 -144 145 0
-857 -214 215 0
-857 -221 222 0
-857 -228 229 0
-863 -123 124 0
-863 -130 131 0
-863 -137 138 0
-863 -144 145 0
-863 -214 215 0
-863 -221 222 0
-863 -228 229 0
-869 -123 124 0
-869 -130 131 0
-869 -137 138 0
-869 -144 145 0
-869 -214 215 0
-869 -221 222 0
-869 -228 229 0
-875 -123 124 0
-875 -130 131 0
-875 -137 138 0
-875 -144 145 0
-875 -214 215 0
-875 -221 222 0
-875 -228 229 0
-881 -123 124 0
-881 -130 131 0
-881 -137 138 0
-881 -144 145 0
-881 -214 215 0
-881 -221 222 0
-881 -228 229 0
-887 -123 124 0
-887 -130 131 0
-887 -137 138 0
-887 -144 145 0
-887 -214 215 0
-887 -221 222 0
-887 -228 229 0
-893 -123 124 0
-893 -130 131 0
-893 -137 138 0
-893 -144 145 0
-893 -214 215 0
-893 -221 222 0
-893 -228 229 0
-899 -123 124 0
-899 -130 131 0
-899 -137 138 0
-899 -144 145 0
-899 -214 215 0
-899 -221 222 0
-899 -228 229 0
-905 -123 124 0
-905 -130 131 0
-905 -137 138 0
-905 -144 145 0
-905 -214 215 0
-905 -221 222 0
-905 -228 229 0
-911 -123 124 0
-911 -130 131 0
-911 -137 138 0
-911 -144 145 0
-911 -214 215 0
-911 -221 222 0
-911 -228 229 0
-917 -123 124 0
-917 -130 131 0
-917 -137 138 0
-917 -144 145 0
-917 -214 215 0
-917 -221 222 0
-917 -228 229 0
-923 -123 124 0
-923 -130 131 0
-923 -137 138 0
-923 -144 145 0
-923 -214 215 0
-923 -221 222 0
-923 -228 229 0
-929 -123 124 0
-929 -130 131 0
-929 -137 138 0
-929 -144 145 0
-929 -214 215 0
-929 -221 222 0
-929 -228 229 0
-935 -123 124 0
-935 -130 131 0
-935 -137 138 0
-935 -144 145 0
-935 -214 215 0
-935 -221 222 0
-935 -228 229 0
-941 -123 124 0
-941 -130 131 0
-941 -137 138 0
-941 -144 145 0
-941 -214 215 0
-941 -221 222 0
-941 -228 229 0
-947 -123 124 0
-947 -130 131 0
-947 -137 138 0
-947 -144 145 0
-947 -214 215 0
-947 -221 222 0
-947 -228 229 0
-953 -123 124 0
-953 -130 131 0
-953 -137 138 0
-953 -144 145 0
-953 -214 215 0
-953 -221 222 0
-953 -228 229 0
-959 -123 124 0
-959 -130 131 0
-959 -137 138 0
-959 -144 145 0
-959 -214 215 0
-959 -221 222 0
-959 -228 229 0
-965 -123 124 0
-965 -130 131 0
-965 -137 138 0
-965 -144 145 0
-965 -214 215 0
-965 -221 222 0
-965 -228 229 0
-971 -123 124 0
-971 -130 131 0
-971 -137 138 0
-971 -144 145 0
-971 -214 215 0
-971 -221 222 0
-971 -228 229 0
-977 -123 124 0
-977 -130 131 0
-977 -137 138 0
-977 -144 145 0
-977 -214 215 0
-977 -221 222 0
-977 -228 229 0
-983 -123 124 0
-983 -130 131 0
-983 -137 138 0
-983 -144 145 0
-983 -214 215 0
-983 -221 222 0
-983 -228 229 0
-989 -123 124 0
-989 -130 131 0
-989 -137 138 0
-989 -144 145 0
-989 -214 215 0
-989 -221 222 0
-989 -228 229 0
-995 -123 124 0
-995 -130 131 0
-995 -137 138 0
-995 -144 145 0
-995 -214 215 0
-995 -221 222 0
-995 -228 229 0
-1001 -123 124 0
-1001 -130 131 0
-1001 -137 138 0
-1001 -144 145 0
-1001 -214 215 0
-1001 -221 222 0
-1001 -228 229 0
-1007 -123 124 0
-1007 -130 131 0
-1007 -137 138 0
-1007 -144 145 0
-1007 -214 215 0
-1007 -221 222 0
-1007 -228 229 0
-1013 -123 124 0
-1013 -130 131 0
-1013 -137 138 0
-1013 -144 145 0
-1013 -214 215 0
-1013 -221 222 0
-1013 -228 229 0
-1019 -123 124 0
-1019 -130 131 0
-1019 -137 138 0
-1019 -144 145 0
-1019 -214 215 0
-1019 -221 222 0
-1019 -228 229 0
-1025 -123 124 0
-1025 -130 131 0
-1025 -137 138 0
-1025 -144 145 0
-1025 -214 215 0
-1025 -221 222 0
-1025 -228 229 0
-1031 -123 124 0
-1031 -130 131 0
-1031 -137 138 0
-1031 -144 145 0
-1031 -214 215 0
-1031 -221 222 0
-1031 -228 229 0
-1037 -123 124 0
-1037 -130 131 0
-1037 -137 138 0
-1037 -144 145 0
-1037 -214 215 0
-1037 -221 222 0
-1037 -228 229 0
-1043 -123 124 0
-1043 -130 131 0
-1043 -137 138 0
-1043 -144 145 0
-1043 -214 215 0
-1043 -221 222 0
-1043 -228 229 0
-1049 -123 124 0
-1049 -130 131 0
-1049 -137 138 0
-1049 -144 145 0
-1049 -214 215 0
-1049 -221 222 0
-1049 -228 229 0
-1055 -123 124 0
-1055 -130 131 0
-1055 -137 138 0
-1055 -144 145 0
-1055 -214 215 0
-1055 -221 222 0
-1055 -228 229 0
-1061 -123 124 0
-1061 -130 131 0
-1061 -137 138 0
-1061 -144 145 0
-1061 -214 215 0
-1061 -221 222 0
-1061 -228 229 0
-1067 -123 124 0
-1067 -130 131 0
-1067 -137 138 0
-1067 -144 145 0
-1067 -214 215 0
-1067 -221 222 0
-1067 -228 229 0
-1073 -123 124 0
-1073 -130 131 0
-1073 -137 138 0
-1073 -144 145 0
-1073 -214 215 0
-1073 -221 222 0
-1073 -228 229 0
-1079 -123 124 0
-1079 -130 131 0
-1079 -137 138 0
-1079 -144 145 0
-1079 -214 215 0
-1079 -221 222 0
-1079 -228 229 0
-1085 -123 124 0
-1085 -130 131 0
-1085 -137 138 0
-1085 -144 145 0
-1085 -214 215 0
-1085 -221 222 0
-1085 -228 229 0
-1091 -123 124 0
-1091 -130 131 0
-1091 -137 138 0
-1091 -144 145 0
-1091 -214 215 0
-1091 -221 222 0
-1091 -228 229 0
-1097 -123 124 0
-1097 -130 131 0
-1097 -137 138 0
-1097 -144 145 0
-1097 -214 215 0
-1097 -221 222 0
-1097 -228 229 0
-1103 -123 124 0
-1103 -130 131 0
-1103 -137 138 0
-1103 -144 145 0
-1103 -214 215 0
-1103 -221 222 0
-1103 -228 229 0
-1109 -123 124 0
-1109 -130 131 0
-1109 -137 138 0
-1109 -144 145 0
-1109 -214 215 0
-1109 -221 222 0
-1109 -228 229 0
-1115 -123 124 0
-1115 -130 131 0
-1115 -137 138 0
-1115 -144 145 0
-1115 -214 215 0
-1115 -221 222 0
-1115 -228 229 0
-1121 -123 124 0
-1121 -130 131 0
-1121 -137 138 0
-1121 -144 145 0
-1121 -214 215 0
-1121 -221 222 0
-1121 -228 229 0
-1127 -123 124 0
-1127 -130 131 0
-1127 -137 138 0
-1127 -144 145 0
-1127 -214 215 0
-1127 -221 222 0
-1127 -228 229 0
-1133 -123 124 0
-1133 -130 131 0
-1133 -137 138 0
-1133 -144 145 0
-1133 -214 215 0
-1133 -221 222 0
-1133 -228 229 0
-1139 -123 124 0
-1139 -130 131 0
-1139 -137 138 0
-1139 -144 145 0
-1139 -214 215 0
-1139 -221 222 0
-1139 -228 229 0
-1145 -123 124 0
-1145 -130 131 0
-1145 -137 138 0
-1145 -144 145 0
-1145 -214 215 0
-1145 -221 222 0
-1145 -228 229 0
-1151 -123 124 0
-1151 -130 131 0
-1151 -137 138 0
-1151 -144 145 0
-1151 -214 215 0
-1151 -221 222 0
-1151 -228 229 0
-1157 -123 124 0
-1157 -130 131 0
-1157 -137 138 0
-1157 -144 145 0
-1157 -214 215 0
-1157 -221 222 0
-1157 -228 229 0
-1163 -123 124 0
-1163 -130 131 0
-1163 -137 138 0
-1163 -144 145 0
-1163 -214 215 0
-1163 -221 222 0
-1163 -228 229 0
-1169 -123 124 0
-1169 -130 131 0
-1169 -137 138 0
-1169 -144 145 0
-1169 -214 215 0
-1169 -221 222 0
-1169 -228 229 0
-912 -5 6 0
-912 -12 13 0
-912 -19 20 0
-912 -26 27 0
-912 -33 34 0
-912 -40 41 0
-912 -152 153 0
-912 -159 160 0
-912 -166 167 0
-918 -5 6 0
-918 -12 13 0
-918 -19 20 0
-918 -26 27 0
-918 -33 34 0
-918 -40 41 0
-918 -152 153 0
-918 -159 160 0
-918 -166 167 0
-924 -5 6 0
-924 -12 13 0
-924 -19 20 0
-924 -26 27 0
-924 -33 34 0
-924 -40 41 0
-924 -152 153 0
-924 -159 160 0
-924 -166 167 0
-930 -5 6 0
-930 -12 13 0
-930 -19 20 0
-930 -26 27 0
-930 -33 34 0
-930 -40 41 0
-930 -152 153 0
-930 -159 160 0
-930 -166 167 0
-936 -5 6 0
-936 -12 13 0
-936 -19 20 0
-936 -26 27 0
-936 -33 34 0
-936 -40 41 0
-936 -152 153 0
-936 -159 160 0
-936 -166 167 0
-942 -5 6 0
-942 -12 13 0
-942 -19 20 0
-942 -26 27 0
-942 -33 34 0
-942 -40 41 0
-942 -152 153 0
-942 -159 160 0
-942 -166 167 0
-948 -5 6 0
-948 -12 13 0
-948 -19 20 0
-948 -26 27 0
-948 -33 34 0
-948 -40 41 0
-948 -152 153 0
-948 -159 160 0
-948 -166 167 0
-954 -5 6 0
-954 -12 13 0
-954 -19 20 0
-954 -26 27 0
-954 -33 34 0
-954 -40 41 0
-954 -152 153 0
-954 -159 160 0
-954 -166 167 0
-960 -5 6 0
-960 -12 13 0
-960 -19 20 0
-960 -26 27 0
-960 -33 34 0
-960 -40 41 0
-960 -152 153 0
-960 -159 160 0
-960 -166 167 0
-966 -5 6 0
-966 -12 13 0
-966 -19 20 0
-966 -26 27 0
-966 -33 34 0
-966 -40 41 0
-966 -152 153 0
-966 -159 160 0
-966 -166 167 0
-972 -5 6 0
-972 -12 13 0
-972 -19 20 0
-972 -26 27 0
-972 -33 34 0
-972 -40 41 0
-972 -152 153 0
-972 -159 160 0
-972 -166 167 0
-978 -5 6 0
-978 -12 13 0
-978 -19 20 0
-978 -26 27 0
-978 -33 34 0
-978 -40 41 0
-978 -152 153 0
-978 -159 160 0
-978 -166 167 0
-984 -5 6 0
-984 -12 13 0
-984 -19 20 0
-984 -26 27 0
-984 -33 34 0
-984 -40 41 0
-984 -152 153 0
-984 -159 160 0
-984 -166 167 0
-990 -5 6 0
-990 -12 13 0
-990 -19 20 0
-990 -26 27 0
-990 -33 34 0
-990 -40 41 0
-990 -152 153 0
-990 -159 160 0
-990 -166 167 0
-996 -5 6 0
-996 -12 13 0
-996 -19 20 0
-996 -26 27 0
-996 -33 34 0
-996 -40 41 0
-996 -152 153 0
-996 -159 160 0
-996 -166 167 0
-1002 -5 6 0
-1002 -12 13 0
-1002 -19 20 0
-1002 -26 27 0
-1002 -33 34 0
-1002 -40 41 0
-1002 -152 153 0
-1002 -159 160 0
-1002 -166 167 0
-1008 -5 6 0
-1008 -12 13 0
-1008 -19 20 0
-1008 -26 27 0
-1008 -33 34 0
-1008 -40 41 0
-1008 -152 153 0
-1008 -159 160 0
-1008 -166 167 0
-1014 -5 6 0
-1014 -12 13 0
-1014 -19 20 0
-1014 -26 27 0
-1014 -33 34 0
-1014 -40 41 0
-1014 -152 153 0
-1014 -159 160 0
-1014 -166 167 0
-1020 -5 6 0
-1020 -12 13 0
-1020 -19 20 0
-1020 -26 27 0
-1020 -33 34 0
-1020 -40 41 0
-1020 -152 153 0
-1020 -159 160 0
-1020 -166 167 0
-1026 -5 6 0
-1026 -12 13 0
-1026 -19 20 0
-1026 -26 27 0
-1026 -33 34 0
-1026 -40 41 0
-1026 -152 153 0
-1026 -159 160 0
-1026 -166 167 0
-1032 -5 6 0
-1032 -12 13 0
-1032 -19 20 0
-1032 -26 27 0
-1032 -33 34 0
-1032 -40 41 0
-1032 -152 153 0
-1032 -159 160 0
-1032 -166 167 0
-1038 -5 6 0
-1038 -12 13 0
-1038 -19 20 0
-1038 -26 27 0
-1038 -33 34 0
-1038 -40 41 0
-1038 -152 153 0
-1038 -159 160 0
-1038 -166 167 0
-1044 -5 6 0
-1044 -12 13 0
-1044 -19 20 0
-1044 -26 27 0
-1044 -33 34 0
-1044 -40 41 0
-1044 -152 153 0
-1044 -159 160 0
-1044 -166 167 0
-1050 -5 6 0
-1050 -12 13 0
-1050 -19 20 0
-1050 -26 27 0
-1050 -33 34 0
-1050 -40 41 0
-1050 -152 153 0
-1050 -159 160 0
-1050 -166 167 0
-1056 -5 6 0
-1056 -12 13 0
-1056 -19 20 0
-1056 -26 27 0
-1056 -33 34 0
-1056 -40 41 0
-1056 -152 153 0
-1056 -159 160 0
-1056 -166 167 0
-1062 -5 6 0
-1062 -12 13 0
-1062 -19 20 0
-1062 -26 27 0
-1062 -33 34 0
-1062 -40 41 0
-1062 -152 153 0
-1062 -159 160 0
-1062 -166 167 0
-1068 -5 6 0
-1068 -12 13 0
-1068 -19 20 0
-1068 -26 27 0
-1068 -33 34 0
-1068 -40 41 0
-1068 -152 153 0
-1068 -159 160 0
-1068 -166 167 0
-1074 -5 6 0
-1074 -12 13 0
-1074 -19 20 0
-1074 -26 27 0
-1074 -33 34 0
-1074 -40 41 0
-1074 -152 153 0
-1074 -159 160 0
-1074 -166 167 0
-1080 -5 6 0
-1080 -12 13 0
-1080 -19 20 0
-1080 -26 27 0
-1080 -33 34 0
-1080 -40 41 0
-1080 -152 153 0
-1080 -159 160 0
-1080 -166 167 0
-1086 -5 6 0
-1086 -12 13 0
-1086 -19 20 0
-1086 -26 27 0
-1086 -33 34 0
-1086 -40 41 0
-1086 -152 153 0
-1086 -159 160 0
-1086 -166 167 0
-1092 -5 6 0
-1092 -12 13 0
-1092 -19 20 0
-1092 -26 27 0
-1092 -33 34 0
-1092 -40 41 0
-1092 -152 153 0
-1092 -159 160 0
-1092 -166 167 0
-1098 -5 6 0
-1098 -12 13 0
-1098 -19 20 0
-1098 -26 27 0
-1098 -33 34 0
-1098 -40 41 0
-1098 -152 153 0
-1098 -159 160 0
-1098 -166 167 0
-1104 -5 6 0
-1104 -12 13 0
-1104 -19 20 0
-1104 -26 27 0
-1104 -33 34 0
-1104 -40 41 0
-1104 -152 153 0
-1104 -159 160 0
-1104 -166 167 0
-1110 -5 6 0
-1110 -12 13 0
-1110 -19 20 0
-1110 -26 27 0
-1110 -33 34 0
-1110 -40 41 0
-1110 -152 153 0
-1110 -159 160 0
-1110 -166 167 0
-1116 -5 6 0
-1116 -12 13 0
-1116 -19 20 0
-1116 -26 27 0
-1116 -33 34 0
-1116 -40 41 0
-1116 -152 153 0
-1116 -159 160 0
-1116 -166 167 0
-1122 -5 6 0
-1122 -12 13 0
-1122 -19 20 0
-1122 -26 27 0
-1122 -33 34 0
-1122 -40 41 0
-1122 -152 153 0
-1122 -159 160 0
-1122 -166 167 0
-1128 -5 6 0
-1128 -12 13 0
-1128 -19 20 0
-1128 -26 27 0
-1128 -33 34 0
-1128 -40 41 0
-1128 -152 153 0
-1128 -159 160 0
-1128 -166 167 0
-1134 -5 6 0
-1134 -12 13 0
-1134 -19 20 0
-1134 -26 27 0
-1134 -33 34 0
-1134 -40 41 0
-1134 -152 153 0
-1134 -159 160 0
-1134 -166 167 0
-1140 -5 6 0
-1140 -12 13 0
-1140 -19 20 0
-1140 -26 27 0
-1140 -33 34 0
-1140 -40 41 0
-1140 -152 153 0
-1140 -159 160 0
-1140 -166 167 0
-1146 -5 6 0
-1146 -12 13 0
-1146 -19 20 0
-1146 -26 27 0
-1146 -33 34 0
-1146 -40 41 0
-1146 -152 153 0
-1146 -159 160 0
-1146 -166 167 0
-1152 -5 6 0
-1152 -12 13 0
-1152 -19 20 0
-1152 -26 27 0
-1152 -33 34 0
-1152 -40 41 0
-1152 -152 153 0
-1152 -159 160 0
-1152 -166 167 0
-1158 -5 6 0
-1158 -12 13 0
-1158 -19 20 0
-1158 -26 27 0
-1158 -33 34 0
-1158 -40 41 0
-1158 -152 153 0
-1158 -159 160 0
-1158 -166 167 0
-1164 -5 6 0
-1164 -12 13 0
-1164 -19 20 0
-1164 -26 27 0
-1164 -33 34 0
-1164 -40 41 0
-1164 -152 153 0
-1164 -159 160 0
-1164 -166 167 0
-1170 -5 6 0
-1170 -12 13 0
-1170 -19 20 0
-1170 -26 27 0
-1170 -33 34 0
-1170 -40 41 0
-1170 -152 153 0
-1170 -159 160 0
-1170 -166 167 0
-1176 -5 6 0
-1176 -12 13 0
-1176 -19 20 0
-1176 -26 27 0
-1176 -33 34 0
-1176 -40 41 0
-1176 -152 153 0
-1176 -159 160 0
-1176 -166 167 0
-1182 -5 6 0
-1182 -12 13 0
-1182 -19 20 0
-1182 -26 27 0
-1182 -33 34 0
-1182 -40 41 0
-1182 -152 153 0
-1182 -159 160 0
-1182 -166 167 0
-1188 -5 6 0
-1188 -12 13 0
-1188 -19 20 0
-1188 -26 27 0
-1188 -33 34 0
-1188 -40 41 0
-1188 -152 153 0
-1188 -159 160 0
-1188 -166 167 0
-1194 -5 6 0
-1194 -12 13 0
-1194 -19 20 0
-1194 -26 27 0
-1194 -33 34 0
-1194 -40 41 0
-1194 -152 153 0
-1194 -159 160 0
-1194 -166 167 0
-1200 -5 6 0
-1200 -12 13 0
-1200 -19 20 0
-1200 -26 27 0
-1200 -33 34 0
-1200 -40 41 0
-1200 -152 153 0
-1200 -159 160 0
-1200 -166 167 0
-1206 -5 6 0
-1206 -12 13 0
-1206 -19 20 0
-1206 -26 27 0
-1206 -33 34 0
-1206 -40 41 0
-1206 -152 153 0
-1206 -159 160 0
-1206 -166 167 0
-1212 -5 6 0
-1212 -12 13 0
-1212 -19 20 0
-1212 -26 27 0
-1212 -33 34 0
-1212 -40 41 0
-1212 -152 153 0
-1212 -159 160 0
-1212 -166 167 0
-1218 -5 6 0
-1218 -12 13 0
-1218 -19 20 0
-1218 -26 27 0
-1218 -33 34 0
-1218 -40 41 0
-1218 -152 153 0
-1218 -159 160 0
-1218 -166 167 0
-1224 -5 6 0
-1224 -12 13 0
-1224 -19 20 0
-1224 -26 27 0
-1224 -33 34 0
-1224 -40 41 0
-1224 -152 153 0
-1224 -159 160 0
-1224 -166 167 0
-1230 -5 6 0
-1230 -12 13 0
-1230 -19 20 0
-1230 -26 27 0
-1230 -33 34 0
-1230 -40 41 0
-1230 -152 153 0
-1230 -159 160 0
-1230 -166 167 0
-1236 -5 6 0
-1236 -12 13 0
-1236 -19 20 0
-1236 -26 27 0
-1236 -33 34 0
-1236 -40 41 0
-1236 -152 153 0
-1236 -159 160 0
-1236 -166 167 0
-1242 -5 6 0
-1242 -12 13 0
-1242 -19 20 0
-1242 -26 27 0
-1242 -33 34 0
-1242 -40 41 0
-1242 -152 153 0
-1242 -159 160 0
-1242 -166 167 0
-1248 -5 6 0
-1248 -12 13 0
-1248 -19 20 0
-1248 -26 27 0
-1248 -33 34 0
-1248 -40 41 0
-1248 -152 153 0
-1248 -159 160 0
-1248 -166 167 0
-1254 -5 6 0
-1254 -12 13 0
-1254 -19 20 0
-1254 -26 27 0
-1254 -33 34 0
-1254 -40 41 0
-1254 -152 153 0
-1254 -159 160 0
-1254 -166 167 0
-1260 -5 6 0
-1260 -12 13 0
-1260 -19 20 0
-1260 -26 27 0
-1260 -33 34 0
-1260 -40 41 0
-1260 -152 153 0
-1260 -159 160 0
-1260 -166 167 0
-1266 -5 6 0
-1266 -12 13 0
-1266 -19 20 0
-1266 -26 27 0
-1266 -33 34 0
-1266 -40 41 0
-1266 -152 153 0
-1266 -159 160 0
-1266 -166 167 0
-768 -47 48 0
-768 -54 55 0
-768 -61 62 0
-768 -68 69 0
-768 -75 76 0
-768 -82 83 0
-768 -173 174 0
-768 -180 181 0
-768 -187 188 0
-774 -47 48 0
-774 -54 55 0
-774 -61 62 0
-774 -68 69 0
-774 -75 76 0
-774 -82 83 0
-774 -173 174 0
-774 -180 181 0
-774 -187 188 0
-780 -47 48 0
-780 -54 55 0
-780 -61 62 0
-780 -68 69 0
-780 -75 76 0
-780 -82 83 0
-780 -173 174 0
-780 -180 181 0
-780 -187 188 0
-786 -47 48 0
-786 -54 55 0
-786 -61 62 0
-786 -68 69 0
-786 -75 76 0
-786 -82 83 0
-786 -173 174 0
-786 -180 181 0
-786 -187 188 0
-792 -47 48 0
-792 -54 55 0
-792 -61 62 0
-792 -68 69 0
-792 -75 76 0
-792 -82 83 0
-792 -173 174 0
-792 -180 181 0
-792 -187 188 0
-798 -47 48 0
-798 -54 55 0
-798 -61 62 0
-798 -68 69 0
-798 -75 76 0
-798 -82 83 0
-798 -173 174 0
-798 -180 181 0
-798 -187 188 0
-804 -47 48 0
-804 -54 55 0
-804 -61 62 0
-804 -68 69 0
-804 -75 76 0
-804 -82 83 0
-804 -173 174 0
-804 -180 181 0
-804 -187 188 0
-810 -47 48 0
-810 -54 55 0
-810 -61 62 0
-810 -68 69 0
-810 -75 76 0
-810 -82 83 0
-810 -173 174 0
-810 -180 181 0
-810 -187 188 0
-816 -47 48 0
-816 -54 55 0
-816 -61 62 0
-816 -68 69 0
-816 -75 76 0
-816 -82 83 0
-816 -173 174 0
-816 -180 181 0
-816 -187 188 0
-822 -47 48 0
-822 -54 55 0
-822 -61 62 0
-822 -68 69 0
-822 -75 76 0
-822 -82 83 0
-822 -173 174 0
-822 -180 181 0
-822 -187 188 0
-828 -47 48 0
-828 -54 55 0
-828 -61 62 0
-828 -68 69 0
-828 -75 76 0
-828 -82 83 0
-828 -173 174 0
-828 -180 181 0
-828 -187 188 0
-834 -47 48 0
-834 -54 55 0
-834 -61 62 0
-834 -68 69 0
-834 -75 76 0
-834 -82 83 0
-834 -173 174 0
-834 -180 181 0
-834 -187 188 0
-840 -47 48 0
-840 -54 55 0
-840 -61 62 0
-840 -68 69 0
-840 -75 76 0
-840 -82 83 0
-840 -173 174 0
-840 -180 181 0
-840 -187 188 0
-846 -47 48 0
-846 -54 55 0
-846 -61 62 0
-846 -68 69 0
-846 -75 76 0
-846 -82 83 0
-846 -173 174 0
-846 -180 181 0
-846 -187 188 0
-852 -47 48 0
-852 -54 55 0
-852 -61 62 0
-852 -68 69 0
-852 -75 76 0
-852 -82 83 0
-852 -173 174 0
-852 -180 181 0
-852 -187 188 0
-858 -47 48 0
-858 -54 55 0
-858 -61 62 0
-858 -68 69 0
-858 -75 76 0
-858 -82 83 0
-858 -173 174 0
-858 -180 181 0
-858 -187 188 0
-864 -47 48 0
-864 -54 55 0
-864 -61 62 0
-864 -68 69 0
-864 -75 76 0
-864 -82 83 0
-864 -173 174 0
-864 -180 181 0
-864 -187 188 0
-870 -47 48 0
-870 -54 55 0
-870 -61 62 0
-870 -68 69 0
-870 -75 76 0
-870 -82 83 0
-870 -173 174 0
-870 -180 181 0
-870 -187 188 0
-876 -47 48 0
-876 -54 55 0
-876 -61 62 0
-876 -68 69 0
-876 -75 76 0
-876 -82 83 0
-876 -173 174 0
-876 -180 181 0
-876 -187 188 0
-882 -47 48 0
-882 -54 55 0
-882 -61 62 0
-882 -68 69 0
-882 -75 76 0
-882 -82 83 0
-882 -173 174 0
-882 -180 181 0
-882 -187 188 0
-888 -47 48 0
-888 -54 55 0
-888 -61 62 0
-888 -68 69 0
-888 -75 76 0
-888 -82 83 0
-888 -173 174 0
-888 -180 181 0
-888 -187 188 0
-894 -47 48 0
-894 -54 55 0
-894 -61 62 0
-894 -68 69 0
-894 -75 76 0
-894 -82 83 0
-894 -173 174 0
-894 -180 181 0
-894 -187 188 0
-900 -47 48 0
-900 -54 55 0
-900 -61 62 0
-900 -68 69 0
-900 -75 76 0
-900 -82 83 0
-900 -173 174 0
-900 -180 181 0
-900 -187 188 0
-906 -47 48 0
-906 -54 55 0
-906 -61 62 0
-906 -68 69 0
-906 -75 76 0
-906 -82 83 0
-906 -173 174 0
-906 -180 181 0
-906 -187 188 0
-1056 -47 48 0
-1056 -54 55 0
-1056 -61 62 0
-1056 -68 69 0
-1056 -75 76 0
-1056 -82 83 0
-1056 -173 174 0
-1056 -180 181 0
-1056 -187 188 0
-1062 -47 48 0
-1062 -54 55 0
-1062 -61 62 0
-1062 -68 69 0
-1062 -75 76 0
-1062 -82 83 0
-1062 -173 174 0
-1062 -180 181 0
-1062 -187 188 0
-1068 -47 48 0
-1068 -54 55 0
-1068 -61 62 0
-1068 -68 69 0
-1068 -75 76 0
-1068 -82 83 0
-1068 -173 174 0
-1068 -180 181 0
-1068 -187 188 0
-1074 -47 48 0
-1074 -54 55 0
-1074 -61 62 0
-1074 -68 69 0
-1074 -75 76 0
-1074 -82 83 0
-1074 -173 174 0
-1074 -180 181 0
-1074 -187 188 0
-1080 -47 48 0
-1080 -54 55 0
-1080 -61 62 0
-1080 -68 69 0
-1080 -75 76 0
-1080 -82 83 0
-1080 -173 174 0
-1080 -180 181 0
-1080 -187 188 0
-1086 -47 48 0
-1086 -54 55 0
-1086 -61 62 0
-1086 -68 69 0
-1086 -75 76 0
-1086 -82 83 0
-1086 -173 174 0
-1086 -180 181 0
-1086 -187 188 0
-1092 -47 48 0
-1092 -54 55 0
-1092 -61 62 0
-1092 -68 69 0
-1092 -75 76 0
-1092 -82 83 0
-1092 -173 174 0
-1092 -180 181 0
-1092 -187 188 0
-1098 -47 48 0
-1098 -54 55 0
-1098 -61 62 0
-1098 -68 69 0
-1098 -75 76 0
-1098 -82 83 0
-1098 -173 174 0
-1098 -180 181 0
-1098 -187 188 0
-1104 -47 48 0
-1104 -54 55 0
-1104 -61 62 0
-1104 -68 69 0
-1104 -75 76 0
-1104 -82 83 0
-1104 -173 174 0
-1104 -180 181 0
-1104 -187 188 0
-1110 -47 48 0
-1110 -54 55 0
-1110 -61 62 0
-1110 -68 69 0
-1110 -75 76 0
-1110 -82 83 0
-1110 -173 174 0
-1110 -180 181 0
-1110 -187 188 0
-1116 -47 48 0
-1116 -54 55 0
-1116 -61 62 0
-1116 -68 69 0
-1116 -75 76 0
-1116 -82 83 0
-1116 -173 174 0
-1116 -180 181 0
-1116 -187 188 0
-1122 -47 48 0
-1122 -54 55 0
-1122 -61 62 0
-1122 -68 69 0
-1122 -75 76 0
-1122 -82 83 0
-1122 -173 174 0
-1122 -180 181 0
-1122 -187 188 0
-1128 -47 48 0
-1128 -54 55 0
-1128 -61 62 0
-1128 -68 69 0
-1128 -75 76 0
-1128 -82 83 0
-1128 -173 174 0
-1128 -180 181 0
-1128 -187 188 0
-1134 -47 48 0
-1134 -54 55 0
-1134 -61 62 0
-1134 -68 69 0
-1134 -75 76 0
-1134 -82 83 0
-1134 -173 174 0
-1134 -180 181 0
-1134 -187 188 0
-1140 -47 48 0
-1140 -54 55 0
-1140 -61 62 0
-1140 -68 69 0
-1140 -75 76 0
-1140 -82 83 0
-1140 -173 174 0
-1140 -180 181 0
-1140 -187 188 0
-1146 -47 48 0
-1146 -54 55 0
-1146 -61 62 0
-1146 -68 69 0
-1146 -75 76 0
-1146 -82 83 0
-1146 -173 174 0
-1146 -180 181 0
-1146 -187 188 0
-1152 -47 48 0
-1152 -54 55 0
-1152 -61 62 0
-1152 -68 69 0
-1152 -75 76 0
-1152 -82 83 0
-1152 -173 174 0
-1152 -180 181 0
-1152 -187 188 0
-1158 -47 48 0
-1158 -54 55 0
-1158 -61 62 0
-1158 -68 69 0
-1158 -75 76 0
-1158 -82 83 0
-1158 -173 174 0
-1158 -180 181 0
-1158 -187 188 0
-1164 -47 48 0
-1164 -54 55 0
-1164 -61 62 0
-1164 -68 69 0
-1164 -75 76 0
-1164 -82 83 0
-1164 -173 174 0
-1164 -180 181 0
-1164 -187 188 0
-1170 -47 48 0
-1170 -54 55 0
-1170 -61 62 0
-1170 -68 69 0
-1170 -75 76 0
-1170 -82 83 0
-1170 -173 174 0
-1170 -180 181 0
-1170 -187 188 0
-1176 -47 48 0
-1176 -54 55 0
-1176 -61 62 0
-1176 -68 69 0
-1176 -75 76 0
-1176 -82 83 0
-1176 -173 174 0
-1176 -180 181 0
-1176 -187 188 0
-1182 -47 48 0
-1182 -54 55 0
-1182 -61 62 0
-1182 -68 69 0
-1182 -75 76 0
-1182 -82 83 0
-1182 -173 174 0
-1182 -180 181 0
-1182 -187 188 0
-1188 -47 48 0
-1188 -54 55 0
-1188 -61 62 0
-1188 -68 69 0
-1188 -75 76 0
-1188 -82 83 0
-1188 -173 174 0
-1188 -180 181 0
-1188 -187 188 0
-1194 -47 48 0
-1194 -54 55 0
-1194 -61 62 0
-1194 -68 69 0
-1194 -75 76 0
-1194 -82 83 0
-1194 -173 174 0
-1194 -180 181 0
-1194 -187 188 0
-1200 -47 48 0
-1200 -54 55 0
-1200 -61 62 0
-1200 -68 69 0
-1200 -75 76 0
-1200 -82 83 0
-1200 -173 174 0
-1200 -180 181 0
-1200 -187 188 0
-1206 -47 48 0
-1206 -54 55 0
-1206 -61 62 0
-1206 -68 69 0
-1206 -75 76 0
-1206 -82 83 0
-1206 -173 174 0
-1206 -180 181 0
-1206 -187 188 0
-1212 -47 48 0
-1212 -54 55 0
-1212 -61 62 0
-1212 -68 69 0
-1212 -75 76 0
-1212 -82 83 0
-1212 -173 174 0
-1212 -180 181 0
-1212 -187 188 0
-1218 -47 48 0
-1218 -54 55 0
-1218 -61 62 0
-1218 -68 69 0
-1218 -75 76 0
-1218 -82 83 0
-1218 -173 174 0
-1218 -180 181 0
-1218 -187 188 0
-1224 -47 48 0
-1224 -54 55 0
-1224 -61 62 0
-1224 -68 69 0
-1224 -75 76 0
-1224 -82 83 0
-1224 -173 174 0
-1224 -180 181 0
-1224 -187 188 0
-1230 -47 48 0
-1230 -54 55 0
-1230 -61 62 0
-1230 -68 69 0
-1230 -75 76 0
-1230 -82 83 0
-1230 -173 174 0
-1230 -180 181 0
-1230 -187 188 0
-1236 -47 48 0
-1236 -54 55 0
-1236 -61 62 0
-1236 -68 69 0
-1236 -75 76 0
-1236 -82 83 0
-1236 -173 174 0
-1236 -180 181 0
-1236 -187 188 0
-1242 -47 48 0
-1242 -54 55 0
-1242 -61 62 0
-1242 -68 69 0
-1242 -75 76 0
-1242 -82 83 0
-1242 -173 174 0
-1242 -180 181 0
-1242 -187 188 0
-1248 -47 48 0
-1248 -54 55 0
-1248 -61 62 0
-1248 -68 69 0
-1248 -75 76 0
-1248 -82 83 0
-1248 -173 174 0
-1248 -180 181 0
-1248 -187 188 0
-1254 -47 48 0
-1254 -54 55 0
-1254 -61 62 0
-1254 -68 69 0
-1254 -75 76 0
-1254 -82 83 0
-1254 -173 174 0
-1254 -180 181 0
-1254 -187 188 0
-1260 -47 48 0
-1260 -54 55 0
-1260 -61 62 0
-1260 -68 69 0
-1260 -75 76 0
-1260 -82 83 0
-1260 -173 174 0
-1260 -180 181 0
-1260 -187 188 0
-1266 -47 48 0
-1266 -54 55 0
-1266 -61 62 0
-1266 -68 69 0
-1266 -75 76 0
-1266 -82 83 0
-1266 -173 174 0
-1266 -180 181 0
-1266 -187 188 0
-768 -89 90 0
-768 -96 97 0
-768 -103 104 0
-768 -110 111 0
-768 -117 118 0
-768 -194 195 0
-768 -201 202 0
-768 -208 209 0
-774 -89 90 0
-774 -96 97 0
-774 -103 104 0
-774 -110 111 0
-774 -117 118 0
-774 -194 195 0
-774 -201 202 0
-774 -208 209 0
-780 -89 90 0
-780 -96 97 0
-780 -103 104 0
-780 -110 111 0
-780 -117 118 0
-780 -194 195 0
-780 -201 202 0
-780 -208 209 0
-786 -89 90 0
-786 -96 97 0
-786 -103 104 0
-786 -110 111 0
-786 -117 118 0
-786 -194 195 0
-786 -201 202 0
-786 -208 209 0
-792 -89 90 0
-792 -96 97 0
-792 -103 104 0
-792 -110 111 0
-792 -117 118 0
-792 -194 195 0
-792 -201 202 0
-792 -208 209 0
-798 -89 90 0
-798 -96 97 0
-798 -103 104 0
-798 -110 111 0
-798 -117 118 0
-798 -194 195 0
-798 -201 202 0
-798 -208 209 0
-804 -89 90 0
-804 -96 97 0
-804 -103 104 0
-804 -110 111 0
-804 -117 118 0
-804 -194 195 0
-804 -201 202 0
-804 -208 209 0
-810 -89 90 0
-810 -96 97 0
-810 -103 104 0
-810 -110 111 0
-810 -117 118 0
-810 -194 195 0
-810 -201 202 0
-810 -208 209 0
-816 -89 90 0
-816 -96 97 0
-816 -103 104 0
-816 -110 111 0
-816 -117 118 0
-816 -194 195 0
-816 -201 202 0
-816 -208 209 0
-822 -89 90 0
-822 -96 97 0
-822 -103 104 0
-822 -110 111 0
-822 -117 118 0
-822 -194 195 0
-822 -201 202 0
-822 -208 209 0
-828 -89 90 0
-828 -96 97 0
-828 -103 104 0
-828 -110 111 0
-828 -117 118 0
-828 -194 195 0
-828 -201 202 0
-828 -208 209 0
-834 -89 90 0
-834 -96 97 0
-834 -103 104 0
-834 -110 111 0
-834 -117 118 0
-834 -194 195 0
-834 -201 202 0
-834 -208 209 0
-840 -89 90 0
-840 -96 97 0
-840 -103 104 0
-840 -110 111 0
-840 -117 118 0
-840 -194 195 0
-840 -201 202 0
-840 -208 209 0
-846 -89 90 0
-846 -96 97 0
-846 -103 104 0
-846 -110 111 0
-846 -117 118 0
-846 -194 195 0
-846 -201 202 0
-846 -208 209 0
-852 -89 90 0
-852 -96 97 0
-852 -103 104 0
-852 -110 111 0
-852 -117 118 0
-852 -194 195 0
-852 -201 202 0
-852 -208 209 0
-858 -89 90 0
-858 -96 97 0
-858 -103 104 0
-858 -110 111 0
-858 -117 118 0
-858 -194 195 0
-858 -201 202 0
-858 -208 209 0
-864 -89 90 0
-864 -96 97 0
-864 -103 104 0
-864 -110 111 0
-864 -117 118 0
-864 -194 195 0
-864 -201 202 0
-864 -208 209 0
-870 -89 90 0
-870 -96 97 0
-870 -103 104 0
-870 -110 111 0
-870 -117 118 0
-870 -194 195 0
-870 -201 202 0
-870 -208 209 0
-876 -89 90 0
-876 -96 97 0
-876 -103 104 0
-876 -110 111 0
-876 -117 118 0
-876 -194 195 0
-876 -201 202 0
-876 -208 209 0
-882 -89 90 0
-882 -96 97 0
-882 -103 104 0
-882 -110 111 0
-882 -117 118 0
-882 -194 195 0
-882 -201 202 0
-882 -208 209 0
-888 -89 90 0
-888 -96 97 0
-888 -103 104 0
-888 -110 111 0
-888 -117 118 0
-888 -194 195 0
-888 -201 202 0
-888 -208 209 0
-894 -89 90 0
-894 -96 97 0
-894 -103 104 0
-894 -110 111 0
-894 -117 118 0
-894 -194 195 0
-894 -201 202 0
-894 -208 209 0
-900 -89 90 0
-900 -96 97 0
-900 -103 104 0
-900 -110 111 0
-900 -117 118 0
-900 -194 195 0
-900 -201 202 0
-900 -208 209 0
-906 -89 90 0
-906 -96 97 0
-906 -103 104 0
-906 -110 111 0
-906 -117 118 0
-906 -194 195 0
-906 -201 202 0
-906 -208 209 0
-912 -89 90 0
-912 -96 97 0
-912 -103 104 0
-912 -110 111 0
-912 -117 118 0
-912 -194 195 0
-912 -201 202 0
-912 -208 209 0
-918 -89 90 0
-918 -96 97 0
-918 -103 104 0
-918 -110 111 0
-918 -117 118 0
-918 -194 195 0
-918 -201 202 0
-918 -208 209 0
-924 -89 90 0
-924 -96 97 0
-924 -103 104 0
-924 -110 111 0
-924 -117 118 0
-924 -194 195 0
-924 -201 202 0
-924 -208 209 0
-930 -89 90 0
-930 -96 97 0
-930 -103 104 0
-930 -110 111 0
-930 -117 118 0
-930 -194 195 0
-930 -201 202 0
-930 -208 209 0
-936 -89 90 0
-936 -96 97 0
-936 -103 104 0
-936 -110 111 0
-936 -117 118 0
-936 -194 195 0
-936 -201 202 0
-936 -208 209 0
-942 -89 90 0
-942 -96 97 0
-942 -103 104 0
-942 -110 111 0
-942 -117 118 0
-942 -194 195 0
-942 -201 202 0
-942 -208 209 0
-948 -89 90 0
-948 -96 97 0
-948 -103 104 0
-948 -110 111 0
-948 -117 118 0
-948 -194 195 0
-948 -201 202 0
-948 -208 209 0
-954 -89 90 0
-954 -96 97 0
-954 -103 104 0
-954 -110 111 0
-954 -117 118 0
-954 -194 195 0
-954 -201 202 0
-954 -208 209 0
-960 -89 90 0
-960 -96 97 0
-960 -103 104 0
-960 -110 111 0
-960 -117 118 0
-960 -194 195 0
-960 -201 202 0
-960 -208 209 0
-966 -89 90 0
-966 -96 97 0
-966 -103 104 0
-966 -110 111 0
-966 -117 118 0
-966 -194 195 0
-966 -201 202 0
-966 -208 209 0
-972 -89 90 0
-972 -96 97 0
-972 -103 104 0
-972 -110 111 0
-972 -117 118 0
-972 -194 195 0
-972 -201 202 0
-972 -208 209 0
-978 -89 90 0
-978 -96 97 0
-978 -103 104 0
-978 -110 111 0
-978 -117 118 0
-978 -194 195 0
-978 -201 202 0
-978 -208 209 0
-984 -89 90 0
-984 -96 97 0
-984 -103 104 0
-984 -110 111 0
-984 -117 118 0
-984 -194 195 0
-984 -201 202 0
-984 -208 209 0
-990 -89 90 0
-990 -96 97 0
-990 -103 104 0
-990 -110 111 0
-990 -117 118 0
-990 -194 195 0
-990 -201 202 0
-990 -208 209 0
-996 -89 90 0
-996 -96 97 0
-996 -103 104 0
-996 -110 111 0
-996 -117 118 0
-996 -194 195 0
-996 -201 202 0
-996 -208 209 0
-1002 -89 90 0
-1002 -96 97 0
-1002 -103 104 0
-1002 -110 111 0
-1002 -117 118 0
-1002 -194 195 0
-1002 -201 202 0
-1002 -208 209 0
-1008 -89 90 0
-1008 -96 97 0
-1008 -103 104 0
-1008 -110 111 0
-1008 -117 118 0
-1008 -194 195 0
-1008 -201 202 0
-1008 -208 209 0
-1014 -89 90 0
-1014 -96 97 0
-1014 -103 104 0
-1014 -110 111 0
-1014 -117 118 0
-1014 -194 195 0
-1014 -201 202 0
-1014 -208 209 0
-1020 -89 90 0
-1020 -96 97 0
-1020 -103 104 0
-1020 -110 111 0
-1020 -117 118 0
-1020 -194 195 0
-1020 -201 202 0
-1020 -208 209 0
-1026 -89 90 0
-1026 -96 97 0
-1026 -103 104 0
-1026 -110 111 0
-1026 -117 118 0
-1026 -194 195 0
-1026 -201 202 0
-1026 -208 209 0
-1032 -89 90 0
-1032 -96 97 0
-1032 -103 104 0
-1032 -110 111 0
-1032 -117 118 0
-1032 -194 195 0
-1032 -201 202 0
-1032 -208 209 0
-1038 -89 90 0
-1038 -96 97 0
-1038 -103 104 0
-1038 -110 111 0
-1038 -117 118 0
-1038 -194 195 0
-1038 -201 202 0
-1038 -208 209 0
-1044 -89 90 0
-1044 -96 97 0
-1044 -103 104 0
-1044 -110 111 0
-1044 -117 118 0
-1044 -194 195 0
-1044 -201 202 0
-1044 -208 209 0
-1050 -89 90 0
-1050 -96 97 0
-1050 -103 104 0
-1050 -110 111 0
-1050 -117 118 0
-1050 -194 195 0
-1050 -201 202 0
-1050 -208 209 0
-1176 -89 90 0
-1176 -96 97 0
-1176 -103 104 0
-1176 -110 111 0
-1176 -117 118 0
-1176 -194 195 0
-1176 -201 202 0
-1176 -208 209 0
-1182 -89 90 0
-1182 -96 97 0
-1182 -103 104 0
-1182 -110 111 0
-1182 -117 118 0
-1182 -194 195 0
-1182 -201 202 0
-1182 -208 209 0
-1188 -89 90 0
-1188 -96 97 0
-1188 -103 104 0
-1188 -110 111 0
-1188 -117 118 0
-1188 -194 195 0
-1188 -201 202 0
-1188 -208 209 0
-1194 -89 90 0
-1194 -96 97 0
-1194 -103 104 0
-1194 -110 111 0
-1194 -117 118 0
-1194 -194 195 0
-1194 -201 202 0
-1194 -208 209 0
-1200 -89 90 0
-1200 -96 97 0
-1200 -103 104 0
-1200 -110 111 0
-1200 -117 118 0
-1200 -194 195 0
-1200 -201 202 0
-1200 -208 209 0
-1206 -89 90 0
-1206 -96 97 0
-1206 -103 104 0
-1206 -110 111 0
-1206 -117 118 0
-1206 -194 195 0
-1206 -201 202 0
-1206 -208 209 0
-1212 -89 90 0
-1212 -96 97 0
-1212 -103 104 0
-1212 -110 111 0
-1212 -117 118 0
-1212 -194 195 0
-1212 -201 202 0
-1212 -208 209 0
-1218 -89 90 0
-1218 -96 97 0
-1218 -103 104 0
-1218 -110 111 0
-1218 -117 118 0
-1218 -194 195 0
-1218 -201 202 0
-1218 -208 209 0
-1224 -89 90 0
-1224 -96 97 0
-1224 -103 104 0
-1224 -110 111 0
-1224 -117 118 0
-1224 -194 195 0
-1224 -201 202 0
-1224 -208 209 0
-1230 -89 90 0
-1230 -96 97 0
-1230 -103 104 0
-1230 -110 111 0
-1230 -117 118 0
-1230 -194 195 0
-1230 -201 202 0
-1230 -208 209 0
-1236 -89 90 0
-1236 -96 97 0
-1236 -103 104 0
-1236 -110 111 0
-1236 -117 118 0
-1236 -194 195 0
-1236 -201 202 0
-1236 -208 209 0
-1242 -89 90 0
-1242 -96 97 0
-1242 -103 104 0
-1242 -110 111 0
-1242 -117 118 0
-1242 -194 195 0
-1242 -201 202 0
-1242 -208 209 0
-1248 -89 90 0
-1248 -96 97 0
-1248 -103 104 0
-1248 -110 111 0
-1248 -117 118 0
-1248 -194 195 0
-1248 -201 202 0
-1248 -208 209 0
-1254 -89 90 0
-1254 -96 97 0
-1254 -103 104 0
-1254 -110 111 0
-1254 -117 118 0
-1254 -194 195 0
-1254 -201 202 0
-1254 -208 209 0
-1260 -89 90 0
-1260 -96 97 0
-1260 -103 104 0
-1260 -110 111 0
-1260 -117 118 0
-1260 -194 195 0
-1260 -201 202 0
-1260 -208 209 0
-1266 -89 90 0
-1266 -96 97 0
-1266 -103 104 0
-1266 -110 111 0
-1266 -117 118 0
-1266 -194 195 0
-1266 -201 202 0
-1266 -208 209 0
-768 -124 125 0
-768 -131 132 0
-768 -138 139 0
-768 -145 146 0
-768 -215 216 0
-768 -222 223 0
-768 -229 230 0
-774 -124 125 0
-774 -131 132 0
-774 -138 139 0
-774 -145 146 0
-774 -215 216 0
-774 -222 223 0
-774 -229 230 0
-780 -124 125 0
-780 -131 132 0
-780 -138 139 0
-780 -145 146 0
-780 -215 216 0
-780 -222 223 0
-780 -229 230 0
-786 -124 125 0
-786 -131 132 0
-786 -138 139 0
-786 -145 146 0
-786 -215 216 0
-786 -222 223 0
-786 -229 230 0
-792 -124 125 0
-792 -131 132 0
-792 -138 139 0
-792 -145 146 0
-792 -215 216 0
-792 -222 223 0
-792 -229 230 0
-798 -124 125 0
-798 -131 132 0
-798 -138 139 0
-798 -145 146 0
-798 -215 216 0
-798 -222 223 0
-798 -229 230 0
-804 -124 125 0
-804 -131 132 0
-804 -138 139 0
-804 -145 146 0
-804 -215 216 0
-804 -222 223 0
-804 -229 230 0
-810 -124 125 0
-810 -131 132 0
-810 -138 139 0
-810 -145 146 0
-810 -215 216 0
-810 -222 223 0
-810 -229 230 0
-816 -124 125 0
-816 -131 132 0
-816 -138 139 0
-816 -145 146 0
-816 -215 216 0
-816 -222 223 0
-816 -229 230 0
-822 -124 125 0
-822 -131 132 0
-822 -138 139 0
-822 -145 146 0
-822 -215 216 0
-822 -222 223 0
-822 -229 230 0
-828 -124 125 0
-828 -131 132 0
-828 -138 139 0
-828 -145 146 0
-828 -215 216 0
-828 -222 223 0
-828 -229 230 0
-834 -124 125 0
-834 -131 132 0
-834 -138 139 0
-834 -145 146 0
-834 -215 216 0
-834 -222 223 0
-834 -229 230 0
-840 -124 125 0
-840 -131 132 0
-840 -138 139 0
-840 -145 146 0
-840 -215 216 0
-840 -222 223 0
-840 -229 230 0
-846 -124 125 0
-846 -131 132 0
-846 -138 139 0
-846 -145 146 0
-846 -215 216 0
-846 -222 223 0
-846 -229 230 0
-852 -124 125 0
-852 -131 132 0
-852 -138 139 0
-852 -145 146 0
-852 -215 216 0
-852 -222 223 0
-852 -229 230 0
-858 -124 125 0
-858 -131 132 0
-858 -138 139 0
-858 -145 146 0
-858 -215 216 0
-858 -222 223 0
-858 -229 230 0
-864 -124 125 0
-864 -131 132 0
-864 -138 139 0
-864 -145 146 0
-864 -215 216 0
-864 -222 223 0
-864 -229 230 0
-870 -124 125 0
-870 -131 132 0
-870 -138 139 0
-870 -145 146 0
-870 -215 216 0
-870 -222 223 0
-870 -229 230 0
-876 -124 125 0
-876 -131 132 0
-876 -138 139 0
-876 -145 146 0
-876 -215 216 0
-876 -222 223 0
-876 -229 230 0
-882 -124 125 0
-882 -131 132 0
-882 -138 139 0
-882 -145 146 0
-882 -215 216 0
-882 -222 223 0
-882 -229 230 0
-888 -124 125 0
-888 -131 132 0
-888 -138 139 0
-888 -145 146 0
-888 -215 216 0
-888 -222 223 0
-888 -229 230 0
-894 -124 125 0
-894 -131 132 0
-894 -138 139 0
-894 -145 146 0
-894 -215 216 0
-894 -222 223 0
-894 -229 230 0
-900 -124 125 0
-900 -131 132 0
-900 -138 139 0
-900 -145 146 0
-900 -215 216 0
-900 -222 223 0
-900 -229 230 0
-906 -124 125 0
-906 -131 132 0
-906 -138 139 0
-906 -145 146 0
-906 -215 216 0
-906 -222 223 0
-906 -229 230 0
-912 -124 125 0
-912 -131 132 0
-912 -138 139 0
-912 -145 146 0
-912 -215 216 0
-912 -222 223 0
-912 -229 230 0
-918 -124 125 0
-918 -131 132 0
-918 -138 139 0
-918 -145 146 0
-918 -215 216 0
-918 -222 223 0
-918 -229 230 0
-924 -124 125 0
-924 -131 132 0
-924 -138 139 0
-924 -145 146 0
-924 -215 216 0
-924 -222 223 0
-924 -229 230 0
-930 -124 125 0
-930 -131 132 0
-930 -138 139 0
-930 -145 146 0
-930 -215 216 0
-930 -222 223 0
-930 -229 230 0
-936 -124 125 0
-936 -131 132 0
-936 -138 139 0
-936 -145 146 0
-936 -215 216 0
-936 -222 223 0
-936 -229 230 0
-942 -124 125 0
-942 -131 132 0
-942 -138 139 0
-942 -145 146 0
-942 -215 216 0
-942 -222 223 0
-942 -229 230 0
-948 -124 125 0
-948 -131 132 0
-948 -138 139 0
-948 -145 146 0
-948 -215 216 0
-948 -222 223 0
-948 -229 230 0
-954 -124 125 0
-954 -131 132 0
-954 -138 139 0
-954 -145 146 0
-954 -215 216 0
-954 -222 223 0
-954 -229 230 0
-960 -124 125 0
-960 -131 132 0
-960 -138 139 0
-960 -145 146 0
-960 -215 216 0
-960 -222 223 0
-960 -229 230 0
-966 -124 125 0
-966 -131 132 0
-966 -138 139 0
-966 -145 146 0
-966 -215 216 0
-966 -222 223 0
-966 -229 230 0
-972 -124 125 0
-972 -131 132 0
-972 -138 139 0
-972 -145 146 0
-972 -215 216 0
-972 -222 223 0
-972 -229 230 0
-978 -124 125 0
-978 -131 132 0
-978 -138 139 0
-978 -145 146 0
-978 -215 216 0
-978 -222 223 0
-978 -229 230 0
-984 -124 125 0
-984 -131 132 0
-984 -138 139 0
-984 -145 146 0
-984 -215 216 0
-984 -222 223 0
-984 -229 230 0
-990 -124 125 0
-990 -131 132 0
-990 -138 139 0
-990 -145 146 0
-990 -215 216 0
-990 -222 223 0
-990 -229 230 0
-996 -124 125 0
-996 -131 132 0
-996 -138 139 0
-996 -145 146 0
-996 -215 216 0
-996 -222 223 0
-996 -229 230 0
-1002 -124 125 0
-1002 -131 132 0
-1002 -138 139 0
-1002 -145 146 0
-1002 -215 216 0
-1002 -222 223 0
-1002 -229 230 0
-1008 -124 125 0
-1008 -131 132 0
-1008 -138 139 0
-1008 -145 146 0
-1008 -215 216 0
-1008 -222 223 0
-1008 -229 230 0
-1014 -124 125 0
-1014 -131 132 0
-1014 -138 139 0
-1014 -145 146 0
-1014 -215 216 0
-1014 -222 223 0
-1014 -229 230 0
-1020 -124 125 0
-1020 -131 132 0
-1020 -138 139 0
-1020 -145 146 0
-1020 -215 216 0
-1020 -222 223 0
-1020 -229 230 0
-1026 -124 125 0
-1026 -131 132 0
-1026 -138 139 0
-1026 -145 146 0
-1026 -215 216 0
-1026 -222 223 0
-1026 -229 230 0
-1032 -124 125 0
-1032 -131 132 0
-1032 -138 139 0
-1032 -145 146 0
-1032 -215 216 0
-1032 -222 223 0
-1032 -229 230 0
-1038 -124 125 0
-1038 -131 132 0
-1038 -138 139 0
-1038 -145 146 0
-1038 -215 216 0
-1038 -222 223 0
-1038 -229 230 0
-1044 -124 125 0
-1044 -131 132 0
-1044 -138 139 0
-1044 -145 146 0
-1044 -215 216 0
-1044 -222 223 0
-1044 -229 230 0
-1050 -124 125 0
-1050 -131 132 0
-1050 -138 139 0
-1050 -145 146 0
-1050 -215 216 0
-1050 -222 223 0
-1050 -229 230 0
-1056 -124 125 0
-1056 -131 132 0
-1056 -138 139 0
-1056 -145 146 0
-1056 -215 216 0
-1056 -222 223 0
-1056 -229 230 0
-1062 -124 125 0
-1062 -131 132 0
-1062 -138 139 0
-1062 -145 146 0
-1062 -215 216 0
-1062 -222 223 0
-1062 -229 230 0
-1068 -124 125 0
-1068 -131 132 0
-1068 -138 139 0
-1068 -145 146 0
-1068 -215 216 0
-1068 -222 223 0
-1068 -229 230 0
-1074 -124 125 0
-1074 -131 132 0
-1074 -138 139 0
-1074 -145 146 0
-1074 -215 216 0
-1074 -222 223 0
-1074 -229 230 0
-1080 -124 125 0
-1080 -131 132 0
-1080 -138 139 0
-1080 -145 146 0
-1080 -215 216 0
-1080 -222 223 0
-1080 -229 230 0
-1086 -124 125 0
-1086 -131 132 0
-1086 -138 139 0
-1086 -145 146 0
-1086 -215 216 0
-1086 -222 223 0
-1086 -229 230 0
-1092 -124 125 0
-1092 -131 132 0
-1092 -138 139 0
-1092 -145 146 0
-1092 -215 216 0
-1092 -222 223 0
-1092 -229 230 0
-1098 -124 125 0
-1098 -131 132 0
-1098 -138 139 0
-1098 -145 146 0
-1098 -215 216 0
-1098 -222 223 0
-1098 -229 230 0
-1104 -124 125 0
-1104 -131 132 0
-1104 -138 139 0
-1104 -145 146 0
-1104 -215 216 0
-1104 -222 223 0
-1104 -229 230 0
-1110 -124 125 0
-1110 -131 132 0
-1110 -138 139 0
-1110 -145 146 0
-1110 -215 216 0
-1110 -222 223 0
-1110 -229 230 0
-1116 -124 125 0
-1116 -131 132 0
-1116 -138 139 0
-1116 -145 146 0
-1116 -215 216 0
-1116 -222 223 0
-1116 -229 230 0
-1122 -124 125 0
-1122 -131 132 0
-1122 -138 139 0
-1122 -145 146 0
-1122 -215 216 0
-1122 -222 223 0
-1122 -229 230 0
-1128 -124 125 0
-1128 -131 132 0
-1128 -138 139 0
-1128 -145 146 0
-1128 -215 216 0
-1128 -222 223 0
-1128 -229 230 0
-1134 -124 125 0
-1134 -131 132 0
-1134 -138 139 0
-1134 -145 146 0
-1134 -215 216 0
-1134 -222 223 0
-1134 -229 230 0
-1140 -124 125 0
-1140 -131 132 0
-1140 -138 139 0
-1140 -145 146 0
-1140 -215 216 0
-1140 -222 223 0
-1140 -229 230 0
-1146 -124 125 0
-1146 -131 132 0
-1146 -138 139 0
-1146 -145 146 0
-1146 -215 216 0
-1146 -222 223 0
-1146 -229 230 0
-1152 -124 125 0
-1152 -131 132 0
-1152 -138 139 0
-1152 -145 146 0
-1152 -215 216 0
-1152 -222 223 0
-1152 -229 230 0
-1158 -124 125 0
-1158 -131 132 0
-1158 -138 139 0
-1158 -145 146 0
-1158 -215 216 0
-1158 -222 223 0
-1158 -229 230 0
-1164 -124 125 0
-1164 -131 132 0
-1164 -138 139 0
-1164 -145 146 0
-1164 -215 216 0
-1164 -222 223 0
-1164 -229 230 0
-1170 -124 125 0
-1170 -131 132 0
-1170 -138 139 0
-1170 -145 146 0
-1170 -215 216 0
-1170 -222 223 0
-1170 -229 230 0
-913 -6 7 0
-913 -13 14 0
-913 -20 21 0
-913 -27 28 0
-913 -34 35 0
-913 -41 42 0
-913 -153 154 0
-913 -160 161 0
-913 -167 168 0
-919 -6 7 0
-919 -13 14 0
-919 -20 21 0
-919 -27 28 0
-919 -34 35 0
-919 -41 42 0
-919 -153 154 0
-919 -160 161 0
-919 -167 168 0
-925 -6 7 0
-925 -13 14 0
-925 -20 21 0
-925 -27 28 0
-925 -34 35 0
-925 -41 42 0
-925 -153 154 0
-925 -160 161 0
-925 -167 168 0
-931 -6 7 0
-931 -13 14 0
-931 -20 21 0
-931 -27 28 0
-931 -34 35 0
-931 -41 42 0
-931 -153 154 0
-931 -160 161 0
-931 -167 168 0
-937 -6 7 0
-937 -13 14 0
-937 -20 21 0
-937 -27 28 0
-937 -34 35 0
-937 -41 42 0
-937 -153 154 0
-937 -160 161 0
-937 -167 168 0
-943 -6 7 0
-943 -13 14 0
-943 -20 21 0
-943 -27 28 0
-943 -34 35 0
-943 -41 42 0
-943 -153 154 0
-943 -160 161 0
-943 -167 168 0
-949 -6 7 0
-949 -13 14 0
-949 -20 21 0
-949 -27 28 0
-949 -34 35 0
-949 -41 42 0
-949 -153 154 0
-949 -160 161 0
-949 -167 168 0
-955 -6 7 0
-955 -13 14 0
-955 -20 21 0
-955 -27 28 0
-955 -34 35 0
-955 -41 42 0
-955 -153 154 0
-955 -160 161 0
-955 -167 168 0
-961 -6 7 0
-961 -13 14 0
-961 -20 21 0
-961 -27 28 0
-961 -34 35 0
-961 -41 42 0
-961 -153 154 0
-961 -160 161 0
-961 -167 168 0
-967 -6 7 0
-967 -13 14 0
-967 -20 21 0
-967 -27 28 0
-967 -34 35 0
-967 -41 42 0
-967 -153 154 0
-967 -160 161 0
-967 -167 168 0
-973 -6 7 0
-973 -13 14 0
-973 -20 21 0
-973 -27 28 0
-973 -34 35 0
-973 -41 42 0
-973 -153 154 0
-973 -160 161 0
-973 -167 168 0
-979 -6 7 0
-979 -13 14 0
-979 -20 21 0
-979 -27 28 0
-979 -34 35 0
-979 -41 42 0
-979 -153 154 0
-979 -160 161 0
-979 -167 168 0
-985 -6 7 0
-985 -13 14 0
-985 -20 21 0
-985 -27 28 0
-985 -34 35 0
-985 -41 42 0
-985 -153 154 0
-985 -160 161 0
-985 -167 168 0
-991 -6 7 0
-991 -13 14 0
-991 -20 21 0
-991 -27 28 0
-991 -34 35 0
-991 -41 42 0
-991 -153 154 0
-991 -160 161 0
-991 -167 168 0
-997 -6 7 0
-997 -13 14 0
-997 -20 21 0
-997 -27 28 0
-997 -34 35 0
-997 -41 42 0
-997 -153 154 0
-997 -160 161 0
-997 -167 168 0
-1003 -6 7 0
-1003 -13 14 0
-1003 -20 21 0
-1003 -27 28 0
-1003 -34 35 0
-1003 -41 42 0
-1003 -153 154 0
-1003 -160 161 0
-1003 -167 168 0
-1009 -6 7 0
-1009 -13 14 0
-1009 -20 21 0
-1009 -27 28 0
-1009 -34 35 0
-1009 -41 42 0
-1009 -153 154 0
-1009 -160 161 0
-1009 -167 168 0
-1015 -6 7 0
-1015 -13 14 0
-1015 -20 21 0
-1015 -27 28 0
-1015 -34 35 0
-1015 -41 42 0
-1015 -153 154 0
-1015 -160 161 0
-1015 -167 168 0
-1021 -6 7 0
-1021 -13 14 0
-1021 -20 21 0
-1021 -27 28 0
-1021 -34 35 0
-1021 -41 42 0
-1021 -153 154 0
-1021 -160 161 0
-1021 -167 168 0
-1027 -6 7 0
-1027 -13 14 0
-1027 -20 21 0
-1027 -27 28 0
-1027 -34 35 0
-1027 -41 42 0
-1027 -153 154 0
-1027 -160 161 0
-1027 -167 168 0
-1033 -6 7 0
-1033 -13 14 0
-1033 -20 21 0
-1033 -27 28 0
-1033 -34 35 0
-1033 -41 42 0
-1033 -153 154 0
-1033 -160 161 0
-1033 -167 168 0
-1039 -6 7 0
-1039 -13 14 0
-1039 -20 21 0
-1039 -27 28 0
-1039 -34 35 0
-1039 -41 42 0
-1039 -153 154 0
-1039 -160 161 0
-1039 -167 168 0
-1045 -6 7 0
-1045 -13 14 0
-1045 -20 21 0
-1045 -27 28 0
-1045 -34 35 0
-1045 -41 42 0
-1045 -153 154 0
-1045 -160 161 0
-1045 -167 168 0
-1051 -6 7 0
-1051 -13 14 0
-1051 -20 21 0
-1051 -27 28 0
-1051 -34 35 0
-1051 -41 42 0
-1051 -153 154 0
-1051 -160 161 0
-1051 -167 168 0
-1057 -6 7 0
-1057 -13 14 0
-1057 -20 21 0
-1057 -27 28 0
-1057 -34 35 0
-1057 -41 42 0
-1057 -153 154 0
-1057 -160 161 0
-1057 -167 168 0
-1063 -6 7 0
-1063 -13 14 0
-1063 -20 21 0
-1063 -27 28 0
-1063 -34 35 0
-1063 -41 42 0
-1063 -153 154 0
-1063 -160 161 0
-1063 -167 168 0
-1069 -6 7 0
-1069 -13 14 0
-1069 -20 21 0
-1069 -27 28 0
-1069 -34 35 0
-1069 -41 42 0
-1069 -153 154 0
-1069 -160 161 0
-1069 -167 168 0
-1075 -6 7 0
-1075 -13 14 0
-1075 -20 21 0
-1075 -27 28 0
-1075 -34 35 0
-1075 -41 42 0
-1075 -153 154 0
-1075 -160 161 0
-1075 -167 168 0
-1081 -6 7 0
-1081 -13 14 0
-1081 -20 21 0
-1081 -27 28 0
-1081 -34 35 0
-1081 -41 42 0
-1081 -153 154 0
-1081 -160 161 0
-1081 -167 168 0
-1087 -6 7 0
-1087 -13 14 0
-1087 -20 21 0
-1087 -27 28 0
-1087 -34 35 0
-1087 -41 42 0
-1087 -153 154 0
-1087 -160 161 0
-1087 -167 168 0
-1093 -6 7 0
-1093 -13 14 0
-1093 -20 21 0
-1093 -27 28 0
-1093 -34 35 0
-1093 -41 42 0
-1093 -153 154 0
-1093 -160 161 0
-1093 -167 168 0
-1099 -6 7 0
-1099 -13 14 0
-1099 -20 21 0
-1099 -27 28 0
-1099 -34 35 0
-1099 -41 42 0
-1099 -153 154 0
-1099 -160 161 0
-1099 -167 168 0
-1105 -6 7 0
-1105 -13 14 0
-1105 -20 21 0
-1105 -27 28 0
-1105 -34 35 0
-1105 -41 42 0
-1105 -153 154 0
-1105 -160 161 0
-1105 -167 168 0
-1111 -6 7 0
-1111 -13 14 0
-1111 -20 21 0
-1111 -27 28 0
-1111 -34 35 0
-1111 -41 42 0
-1111 -153 154 0
-1111 -160 161 0
-1111 -167 168 0
-1117 -6 7 0
-1117 -13 14 0
-1117 -20 21 0
-1117 -27 28 0
-1117 -34 35 0
-1117 -41 42 0
-1117 -153 154 0
-1117 -160 161 0
-1117 -167 168 0
-1123 -6 7 0
-1123 -13 14 0
-1123 -20 21 0
-1123 -27 28 0
-1123 -34 35 0
-1123 -41 42 0
-1123 -153 154 0
-1123 -160 161 0
-1123 -167 168 0
-1129 -6 7 0
-1129 -13 14 0
-1129 -20 21 0
-1129 -27 28 0
-1129 -34 35 0
-1129 -41 42 0
-1129 -153 154 0
-1129 -160 161 0
-1129 -167 168 0
-1135 -6 7 0
-1135 -13 14 0
-1135 -20 21 0
-1135 -27 28 0
-1135 -34 35 0
-1135 -41 42 0
-1135 -153 154 0
-1135 -160 161 0
-1135 -167 168 0
-1141 -6 7 0
-1141 -13 14 0
-1141 -20 21 0
-1141 -27 28 0
-1141 -34 35 0
-1141 -41 42 0
-1141 -153 154 0
-1141 -160 161 0
-1141 -167 168 0
-1147 -6 7 0
-1147 -13 14 0
-1147 -20 21 0
-1147 -27 28 0
-1147 -34 35 0
-1147 -41 42 0
-1147 -153 154 0
-1147 -160 161 0
-1147 -167 168 0
-1153 -6 7 0
-1153 -13 14 0
-1153 -20 21 0
-1153 -27 28 0
-1153 -34 35 0
-1153 -41 42 0
-1153 -153 154 0
-1153 -160 161 0
-1153 -167 168 0
-1159 -6 7 0
-1159 -13 14 0
-1159 -20 21 0
-1159 -27 28 0
-1159 -34 35 0
-1159 -41 42 0
-1159 -153 154 0
-1159 -160 161 0
-1159 -167 168 0
-1165 -6 7 0
-1165 -13 14 0
-1165 -20 21 0
-1165 -27 28 0
-1165 -34 35 0
-1165 -41 42 0
-1165 -153 154 0
-1165 -160 161 0
-1165 -167 168 0
-1171 -6 7 0
-1171 -13 14 0
-1171 -20 21 0
-1171 -27 28 0
-1171 -34 35 0
-1171 -41 42 0
-1171 -153 154 0
-1171 -160 161 0
-1171 -167 168 0
-1177 -6 7 0
-1177 -13 14 0
-1177 -20 21 0
-1177 -27 28 0
-1177 -34 35 0
-1177 -41 42 0
-1177 -153 154 0
-1177 -160 161 0
-1177 -167 168 0
-1183 -6 7 0
-1183 -13 14 0
-1183 -20 21 0
-1183 -27 28 0
-1183 -34 35 0
-1183 -41 42 0
-1183 -153 154 0
-1183 -160 161 0
-1183 -167 168 0
-1189 -6 7 0
-1189 -13 14 0
-1189 -20 21 0
-1189 -27 28 0
-1189 -34 35 0
-1189 -41 42 0
-1189 -153 154 0
-1189 -160 161 0
-1189 -167 168 0
-1195 -6 7 0
-1195 -13 14 0
-1195 -20 21 0
-1195 -27 28 0
-1195 -34 35 0
-1195 -41 42 0
-1195 -153 154 0
-1195 -160 161 0
-1195 -167 168 0
-1201 -6 7 0
-1201 -13 14 0
-1201 -20 21 0
-1201 -27 28 0
-1201 -34 35 0
-1201 -41 42 0
-1201 -153 154 0
-1201 -160 161 0
-1201 -167 168 0
-1207 -6 7 0
-1207 -13 14 0
-1207 -20 21 0
-1207 -27 28 0
-1207 -34 35 0
-1207 -41 42 0
-1207 -153 154 0
-1207 -160 161 0
-1207 -167 168 0
-1213 -6 7 0
-1213 -13 14 0
-1213 -20 21 0
-1213 -27 28 0
-1213 -34 35 0
-1213 -41 42 0
-1213 -153 154 0
-1213 -160 161 0
-1213 -167 168 0
-1219 -6 7 0
-1219 -13 14 0
-1219 -20 21 0
-1219 -27 28 0
-1219 -34 35 0
-1219 -41 42 0
-1219 -153 154 0
-1219 -160 161 0
-1219 -167 168 0
-1225 -6 7 0
-1225 -13 14 0
-1225 -20 21 0
-1225 -27 28 0
-1225 -34 35 0
-1225 -41 42 0
-1225 -153 154 0
-1225 -160 161 0
-1225 -167 168 0
-1231 -6 7 0
-1231 -13 14 0
-1231 -20 21 0
-1231 -27 28 0
-1231 -34 35 0
-1231 -41 42 0
-1231 -153 154 0
-1231 -160 161 0
-1231 -167 168 0
-1237 -6 7 0
-1237 -13 14 0
-1237 -20 21 0
-1237 -27 28 0
-1237 -34 35 0
-1237 -41 42 0
-1237 -153 154 0
-1237 -160 161 0
-1237 -167 168 0
-1243 -6 7 0
-1243 -13 14 0
-1243 -20 21 0
-1243 -27 28 0
-1243 -34 35 0
-1243 -41 42 0
-1243 -153 154 0
-1243 -160 161 0
-1243 -167 168 0
-1249 -6 7 0
-1249 -13 14 0
-1249 -20 21 0
-1249 -27 28 0
-1249 -34 35 0
-1249 -41 42 0
-1249 -153 154 0
-1249 -160 161 0
-1249 -167 168 0
-1255 -6 7 0
-1255 -13 14 0
-1255 -20 21 0
-1255 -27 28 0
-1255 -34 35 0
-1255 -41 42 0
-1255 -153 154 0
-1255 -160 161 0
-1255 -167 168 0
-1261 -6 7 0
-1261 -13 14 0
-1261 -20 21 0
-1261 -27 28 0
-1261 -34 35 0
-1261 -41 42 0
-1261 -153 154 0
-1261 -160 161 0
-1261 -167 168 0
-1267 -6 7 0
-1267 -13 14 0
-1267 -20 21 0
-1267 -27 28 0
-1267 -34 35 0
-1267 -41 42 0
-1267 -153 154 0
-1267 -160 161 0
-1267 -167 168 0
-769 -48 49 0
-769 -55 56 0
-769 -62 63 0
-769 -69 70 0
-769 -76 77 0
-769 -83 84 0
-769 -174 175 0
-769 -181 182 0
-769 -188 189 0
-775 -48 49 0
-775 -55 56 0
-775 -62 63 0
-775 -69 70 0
-775 -76 77 0
-775 -83 84 0
-775 -174 175 0
-775 -181 182 0
-775 -188 189 0
-781 -48 49 0
-781 -55 56 0
-781 -62 63 0
-781 -69 70 0
-781 -76 77 0
-781 -83 84 0
-781 -174 175 0
-781 -181 182 0
-781 -188 189 0
-787 -48 49 0
-787 -55 56 0
-787 -62 63 0
-787 -69 70 0
-787 -76 77 0
-787 -83 84 0
-787 -174 175 0
-787 -181 182 0
-787 -188 189 0
-793 -48 49 0
-793 -55 56 0
-793 -62 63 0
-793 -69 70 0
-793 -76 77 0
-793 -83 84 0
-793 -174 175 0
-793 -181 182 0
-793 -188 189 0
-799 -48 49 0
-799 -55 56 0
-799 -62 63 0
-799 -69 70 0
-799 -76 77 0
-799 -83 84 0
-799 -174 175 0
-799 -181 182 0
-799 -188 189 0
-805 -48 49 0
-805 -55 56 0
-805 -62 63 0
-805 -69 70 0
-805 -76 77 0
-805 -83 84 0
-805 -174 175 0
-805 -181 182 0
-805 -188 189 0
-811 -48 49 0
-811 -55 56 0
-811 -62 63 0
-811 -69 70 0
-811 -76 77 0
-811 -83 84 0
-811 -174 175 0
-811 -181 182 0
-811 -188 189 0
-817 -48 49 0
-817 -55 56 0
-817 -62 63 0
-817 -69 70 0
-817 -76 77 0
-817 -83 84 0
-817 -174 175 0
-817 -181 182 0
-817 -188 189 0
-823 -48 49 0
-823 -55 56 0
-823 -62 63 0
-823 -69 70 0
-823 -76 77 0
-823 -83 84 0
-823 -174 175 0
-823 -181 182 0
-823 -188 189 0
-829 -48 49 0
-829 -55 56 0
-829 -62 63 0
-829 -69 70 0
-829 -76 77 0
-829 -83 84 0
-829 -174 175 0
-829 -181 182 0
-829 -188 189 0
-835 -48 49 0
-835 -55 56 0
-835 -62 63 0
-835 -69 70 0
-835 -76 77 0
-835 -83 84 0
-835 -174 175 0
-835 -181 182 0
-835 -188 189 0
-841 -48 49 0
-841 -55 56 0
-841 -62 63 0
-841 -69 70 0
-841 -76 77 0
-841 -83 84 0
-841 -174 175 0
-841 -181 182 0
-841 -188 189 0
-847 -48 49 0
-847 -55 56 0
-847 -62 63 0
-847 -69 70 0
-847 -76 77 0
-847 -83 84 0
-847 -174 175 0
-847 -181 182 0
-847 -188 189 0
-853 -48 49 0
-853 -55 56 0
-853 -62 63 0
-853 -69 70 0
-853 -76 77 0
-853 -83 84 0
-853 -174 175 0
-853 -181 182 0
-853 -188 189 0
-859 -48 49 0
-859 -55 56 0
-859 -62 63 0
-859 -69 70 0
-859 -76 77 0
-859 -83 84 0
-859 -174 175 0
-859 -181 182 0
-859 -188 189 0
-865 -48 49 0
-865 -55 56 0
-865 -62 63 0
-865 -69 70 0
-865 -76 77 0
-865 -83 84 0
-865 -174 175 0
-865 -181 182 0
-865 -188 189 0
-871 -48 49 0
-871 -55 56 0
-871 -62 63 0
-871 -69 70 0
-871 -76 77 0
-871 -83 84 0
-871 -174 175 0
-871 -181 182 0
-871 -188 189 0
-877 -48 49 0
-877 -55 56 0
-877 -62 63 0
-877 -69 70 0
-877 -76 77 0
-877 -83 84 0
-877 -174 175 0
-877 -181 182 0
-877 -188 189 0
-883 -48 49 0
-883 -55 56 0
-883 -62 63 0
-883 -69 70 0
-883 -76 77 0
-883 -83 84 0
-883 -174 175 0
-883 -181 182 0
-883 -188 189 0
-889 -48 49 0
-889 -55 56 0
-889 -62 63 0
-889 -69 70 0
-889 -76 77 0
-889 -83 84 0
-889 -174 175 0
-889 -181 182 0
-889 -188 189 0
-895 -48 49 0
-895 -55 56 0
-895 -62 63 0
-895 -69 70 0
-895 -76 77 0
-895 -83 84 0
-895 -174 175 0
-895 -181 182 0
-895 -188 189 0
-901 -48 49 0
-901 -55 56 0
-901 -62 63 0
-901 -69 70 0
-901 -76 77 0
-901 -83 84 0
-901 -174 175 0
-901 -181 182 0
-901 -188 189 0
-907 -48 49 0
-907 -55 56 0
-907 -62 63 0
-907 -69 70 0
-907 -76 77 0
-907 -83 84 0
-907 -174 175 0
-907 -181 182 0
-907 -188 189 0
-1057 -48 49 0
-1057 -55 56 0
-1057 -62 63 0
-1057 -69 70 0
-1057 -76 77 0
-1057 -83 84 0
-1057 -174 175 0
-1057 -181 182 0
-1057 -188 189 0
-1063 -48 49 0
-1063 -55 56 0
-1063 -62 63 0
-1063 -69 70 0
-1063 -76 77 0
-1063 -83 84 0
-1063 -174 175 0
-1063 -181 182 0
-1063 -188 189 0
-1069 -48 49 0
-1069 -55 56 0
-1069 -62 63 0
-1069 -69 70 0
-1069 -76 77 0
-1069 -83 84 0
-1069 -174 175 0
-1069 -181 182 0
-1069 -188 189 0
-1075 -48 49 0
-1075 -55 56 0
-1075 -62 63 0
-1075 -69 70 0
-1075 -76 77 0
-1075 -83 84 0
-1075 -174 175 0
-1075 -181 182 0
-1075 -188 189 0
-1081 -48 49 0
-1081 -55 56 0
-1081 -62 63 0
-1081 -69 70 0
-1081 -76 77 0
-1081 -83 84 0
-1081 -174 175 0
-1081 -181 182 0
-1081 -188 189 0
-1087 -48 49 0
-1087 -55 56 0
-1087 -62 63 0
-1087 -69 70 0
-1087 -76 77 0
-1087 -83 84 0
-1087 -174 175 0
-1087 -181 182 0
-1087 -188 189 0
-1093 -48 49 0
-1093 -55 56 0
-1093 -62 63 0
-1093 -69 70 0
-1093 -76 77 0
-1093 -83 84 0
-1093 -174 175 0
-1093 -181 182 0
-1093 -188 189 0
-1099 -48 49 0
-1099 -55 56 0
-1099 -62 63 0
-1099 -69 70 0
-1099 -76 77 0
-1099 -83 84 0
-1099 -174 175 0
-1099 -181 182 0
-1099 -188 189 0
-1105 -48 49 0
-1105 -55 56 0
-1105 -62 63 0
-1105 -69 70 0
-1105 -76 77 0
-1105 -83 84 0
-1105 -174 175 0
-1105 -181 182 0
-1105 -188 189 0
-1111 -48 49 0
-1111 -55 56 0
-1111 -62 63 0
-1111 -69 70 0
-1111 -76 77 0
-1111 -83 84 0
-1111 -174 175 0
-1111 -181 182 0
-1111 -188 189 0
-1117 -48 49 0
-1117 -55 56 0
-1117 -62 63 0
-1117 -69 70 0
-1117 -76 77 0
-1117 -83 84 0
-1117 -174 175 0
-1117 -181 182 0
-1117 -188 189 0
-1123 -48 49 0
-1123 -55 56 0
-1123 -62 63 0
-1123 -69 70 0
-1123 -76 77 0
-1123 -83 84 0
-1123 -174 175 0
-1123 -181 182 0
-1123 -188 189 0
-1129 -48 49 0
-1129 -55 56 0
-1129 -62 63 0
-1129 -69 70 0
-1129 -76 77 0
-1129 -83 84 0
-1129 -174 175 0
-1129 -181 182 0
-1129 -188 189 0
-1135 -48 49 0
-1135 -55 56 0
-1135 -62 63 0
-1135 -69 70 0
-1135 -76 77 0
-1135 -83 84 0
-1135 -174 175 0
-1135 -181 182 0
-1135 -188 189 0
-1141 -48 49 0
-1141 -55 56 0
-1141 -62 63 0
-1141 -69 70 0
-1141 -76 77 0
-1141 -83 84 0
-1141 -174 175 0
-1141 -181 182 0
-1141 -188 189 0
-1147 -48 49 0
-1147 -55 56 0
-1147 -62 63 0
-1147 -69 70 0
-1147 -76 77 0
-1147 -83 84 0
-1147 -174 175 0
-1147 -181 182 0
-1147 -188 189 0
-1153 -48 49 0
-1153 -55 56 0
-1153 -62 63 0
-1153 -69 70 0
-1153 -76 77 0
-1153 -83 84 0
-1153 -174 175 0
-1153 -181 182 0
-1153 -188 189 0
-1159 -48 49 0
-1159 -55 56 0
-1159 -62 63 0
-1159 -69 70 0
-1159 -76 77 0
-1159 -83 84 0
-1159 -174 175 0
-1159 -181 182 0
-1159 -188 189 0
-1165 -48 49 0
-1165 -55 56 0
-1165 -62 63 0
-1165 -69 70 0
-1165 -76 77 0
-1165 -83 84 0
-1165 -174 175 0
-1165 -181 182 0
-1165 -188 189 0
-1171 -48 49 0
-1171 -55 56 0
-1171 -62 63 0
-1171 -69 70 0
-1171 -76 77 0
-1171 -83 84 0
-1171 -174 175 0
-1171 -181 182 0
-1171 -188 189 0
-1177 -48 49 0
-1177 -55 56 0
-1177 -62 63 0
-1177 -69 70 0
-1177 -76 77 0
-1177 -83 84 0
-1177 -174 175 0
-1177 -181 182 0
-1177 -188 189 0
-1183 -48 49 0
-1183 -55 56 0
-1183 -62 63 0
-1183 -69 70 0
-1183 -76 77 0
-1183 -83 84 0
-1183 -174 175 0
-1183 -181 182 0
-1183 -188 189 0
-1189 -48 49 0
-1189 -55 56 0
-1189 -62 63 0
-1189 -69 70 0
-1189 -76 77 0
-1189 -83 84 0
-1189 -174 175 0
-1189 -181 182 0
-1189 -188 189 0
-1195 -48 49 0
-1195 -55 56 0
-1195 -62 63 0
-1195 -69 70 0
-1195 -76 77 0
-1195 -83 84 0
-1195 -174 175 0
-1195 -181 182 0
-1195 -188 189 0
-1201 -48 49 0
-1201 -55 56 0
-1201 -62 63 0
-1201 -69 70 0
-1201 -76 77 0
-1201 -83 84 0
-1201 -174 175 0
-1201 -181 182 0
-1201 -188 189 0
-1207 -48 49 0
-1207 -55 56 0
-1207 -62 63 0
-1207 -69 70 0
-1207 -76 77 0
-1207 -83 84 0
-1207 -174 175 0
-1207 -181 182 0
-1207 -188 189 0
-1213 -48 49 0
-1213 -55 56 0
-1213 -62 63 0
-1213 -69 70 0
-1213 -76 77 0
-1213 -83 84 0
-1213 -174 175 0
-1213 -181 182 0
-1213 -188 189 0
-1219 -48 49 0
-1219 -55 56 0
-1219 -62 63 0
-1219 -69 70 0
-1219 -76 77 0
-1219 -83 84 0
-1219 -174 175 0
-1219 -181 182 0
-1219 -188 189 0
-1225 -48 49 0
-1225 -55 56 0
-1225 -62 63 0
-1225 -69 70 0
-1225 -76 77 0
-1225 -83 84 0
-1225 -174 175 0
-1225 -181 182 0
-1225 -188 189 0
-1231 -48 49 0
-1231 -55 56 0
-1231 -62 63 0
-1231 -69 70 0
-1231 -76 77 0
-1231 -83 84 0
-1231 -174 175 0
-1231 -181 182 0
-1231 -188 189 0
-1237 -48 49 0
-1237 -55 56 0
-1237 -62 63 0
-1237 -69 70 0
-1237 -76 77 0
-1237 -83 84 0
-1237 -174 175 0
-1237 -181 182 0
-1237 -188 189 0
-1243 -48 49 0
-1243 -55 56 0
-1243 -62 63 0
-1243 -69 70 0
-1243 -76 77 0
-1243 -83 84 0
-1243 -174 175 0
-1243 -181 182 0
-1243 -188 189 0
-1249 -48 49 0
-1249 -55 56 0
-1249 -62 63 0
-1249 -69 70 0
-1249 -76 77 0
-1249 -83 84 0
-1249 -174 175 0
-1249 -181 182 0
-1249 -188 189 0
-1255 -48 49 0
-1255 -55 56 0
-1255 -62 63 0
-1255 -69 70 0
-1255 -76 77 0
-1255 -83 84 0
-1255 -174 175 0
-1255 -181 182 0
-1255 -188 189 0
-1261 -48 49 0
-1261 -55 56 0
-1261 -62 63 0
-1261 -69 70 0
-1261 -76 77 0
-1261 -83 84 0
-1261 -174 175 0
-1261 -181 182 0
-1261 -188 189 0
-1267 -48 49 0
-1267 -55 56 0
-1267 -62 63 0
-1267 -69 70 0
-1267 -76 77 0
-1267 -83 84 0
-1267 -174 175 0
-1267 -181 182 0
-1267 -188 189 0
-769 -90 91 0
-769 -97 98 0
-769 -104 105 0
-769 -111 112 0
-769 -118 119 0
-769 -195 196 0
-769 -202 203 0
-769 -209 210 0
-775 -90 91 0
-775 -97 98 0
-775 -104 105 0
-775 -111 112 0
-775 -118 119 0
-775 -195 196 0
-775 -202 203 0
-775 -209 210 0
-781 -90 91 0
-781 -97 98 0
-781 -104 105 0
-781 -111 112 0
-781 -118 119 0
-781 -195 196 0
-781 -202 203 0
-781 -209 210 0
-787 -90 91 0
-787 -97 98 0
-787 -104 105 0
-787 -111 112 0
-787 -118 119 0
-787 -195 196 0
-787 -202 203 0
-787 -209 210 0
-793 -90 91 0
-793 -97 98 0
-793 -104 105 0
-793 -111 112 0
-793 -118 119 0
-793 -195 196 0
-793 -202 203 0
-793 -209 210 0
-799 -90 91 0
-799 -97 98 0
-799 -104 105 0
-799 -111 112 0
-799 -118 119 0
-799 -195 196 0
-799 -202 203 0
-799 -209 210 0
-805 -90 91 0
-805 -97 98 0
-805 -104 105 0
-805 -111 112 0
-805 -118 119 0
-805 -195 196 0
-805 -202 203 0
-805 -209 210 0
-811 -90 91 0
-811 -97 98 0
-811 -104 105 0
-811 -111 112 0
-811 -118 119 0
-811 -195 196 0
-811 -202 203 0
-811 -209 210 0
-817 -90 91 0
-817 -97 98 0
-817 -104 105 0
-817 -111 112 0
-817 -118 119 0
-817 -195 196 0
-817 -202 203 0
-817 -209 210 0
-823 -90 91 0
-823 -97 98 0
-823 -104 105 0
-823 -111 112 0
-823 -118 119 0
-823 -195 196 0
-823 -202 203 0
-823 -209 210 0
-829 -90 91 0
-829 -97 98 0
-829 -104 105 0
-829 -111 112 0
-829 -118 119 0
-829 -195 196 0
-829 -202 203 0
-829 -209 210 0
-835 -90 91 0
-835 -97 98 0
-835 -104 105 0
-835 -111 112 0
-835 -118 119 0
-835 -195 196 0
-835 -202 203 0
-835 -209 210 0
-841 -90 91 0
-841 -97 98 0
-841 -104 105 0
-841 -111 112 0
-841 -118 119 0
-841 -195 196 0
-841 -202 203 0
-841 -209 210 0
-847 -90 91 0
-847 -97 98 0
-847 -104 105 0
-847 -111 112 0
-847 -118 119 0
-847 -195 196 0
-847 -202 203 0
-847 -209 210 0
-853 -90 91 0
-853 -97 98 0
-853 -104 105 0
-853 -111 112 0
-853 -118 119 0
-853 -195 196 0
-853 -202 203 0
-853 -209 210 0
-859 -90 91 0
-859 -97 98 0
-859 -104 105 0
-859 -111 112 0
-859 -118 119 0
-859 -195 196 0
-859 -202 203 0
-859 -209 210 0
-865 -90 91 0
-865 -97 98 0
-865 -104 105 0
-865 -111 112 0
-865 -118 119 0
-865 -195 196 0
-865 -202 203 0
-865 -209 210 0
-871 -90 91 0
-871 -97 98 0
-871 -104 105 0
-871 -111 112 0
-871 -118 119 0
-871 -195 196 0
-871 -202 203 0
-871 -209 210 0
-877 -90 91 0
-877 -97 98 0
-877 -104 105 0
-877 -111 112 0
-877 -118 119 0
-877 -195 196 0
-877 -202 203 0
-877 -209 210 0
-883 -90 91 0
-883 -97 98 0
-883 -104 105 0
-883 -111 112 0
-883 -118 119 0
-883 -195 196 0
-883 -202 203 0
-883 -209 210 0
-889 -90 91 0
-889 -97 98 0
-889 -104 105 0
-889 -111 112 0
-889 -118 119 0
-889 -195 196 0
-889 -202 203 0
-889 -209 210 0
-895 -90 91 0
-895 -97 98 0
-895 -104 105 0
-895 -111 112 0
-895 -118 119 0
-895 -195 196 0
-895 -202 203 0
-895 -209 210 0
-901 -90 91 0
-901 -97 98 0
-901 -104 105 0
-901 -111 112 0
-901 -118 119 0
-901 -195 196 0
-901 -202 203 0
-901 -209 210 0
-907 -90 91 0
-907 -97 98 0
-907 -104 105 0
-907 -111 112 0
-907 -118 119 0
-907 -195 196 0
-907 -202 203 0
-907 -209 210 0
-913 -90 91 0
-913 -97 98 0
-913 -104 105 0
-913 -111 112 0
-913 -118 119 0
-913 -195 196 0
-913 -202 203 0
-913 -209 210 0
-919 -90 91 0
-919 -97 98 0
-919 -104 105 0
-919 -111 112 0
-919 -118 119 0
-919 -195 196 0
-919 -202 203 0
-919 -209 210 0
-925 -90 91 0
-925 -97 98 0
-925 -104 105 0
-925 -111 112 0
-925 -118 119 0
-925 -195 196 0
-925 -202 203 0
-925 -209 210 0
-931 -90 91 0
-931 -97 98 0
-931 -104 105 0
-931 -111 112 0
-931 -118 119 0
-931 -195 196 0
-931 -202 203 0
-931 -209 210 0
-937 -90 91 0
-937 -97 98 0
-937 -104 105 0
-937 -111 112 0
-937 -118 119 0
-937 -195 196 0
-937 -202 203 0
-937 -209 210 0
-943 -90 91 0
-943 -97 98 0
-943 -104 105 0
-943 -111 112 0
-943 -118 119 0
-943 -195 196 0
-943 -202 203 0
-943 -209 210 0
-949 -90 91 0
-949 -97 98 0
-949 -104 105 0
-949 -111 112 0
-949 -118 119 0
-949 -195 196 0
-949 -202 203 0
-949 -209 210 0
-955 -90 91 0
-955 -97 98 0
-955 -104 105 0
-955 -111 112 0
-955 -118 119 0
-955 -195 196 0
-955 -202 203 0
-955 -209 210 0
-961 -90 91 0
-961 -97 98 0
-961 -104 105 0
-961 -111 112 0
-961 -118 119 0
-961 -195 196 0
-961 -202 203 0
-961 -209 210 0
-967 -90 91 0
-967 -97 98 0
-967 -104 105 0
-967 -111 112 0
-967 -118 119 0
-967 -195 196 0
-967 -202 203 0
-967 -209 210 0
-973 -90 91 0
-973 -97 98 0
-973 -104 105 0
-973 -111 112 0
-973 -118 119 0
-973 -195 196 0
-973 -202 203 0
-973 -209 210 0
-979 -90 91 0
-979 -97 98 0
-979 -104 105 0
-979 -111 112 0
-979 -118 119 0
-979 -195 196 0
-979 -202 203 0
-979 -209 210 0
-985 -90 91 0
-985 -97 98 0
-985 -104 105 0
-985 -111 112 0
-985 -118 119 0
-985 -195 196 0
-985 -202 203 0
-985 -209 210 0
-991 -90 91 0
-991 -97 98 0
-991 -104 105 0
-991 -111 112 0
-991 -118 119 0
-991 -195 196 0
-991 -202 203 0
-991 -209 210 0
-997 -90 91 0
-997 -97 98 0
-997 -104 105 0
-997 -111 112 0
-997 -118 119 0
-997 -195 196 0
-997 -202 203 0
-997 -209 210 0
-1003 -90 91 0
-1003 -97 98 0
-1003 -104 105 0
-1003 -111 112 0
-1003 -118 119 0
-1003 -195 196 0
-1003 -202 203 0
-1003 -209 210 0
-1009 -90 91 0
-1009 -97 98 0
-1009 -104 105 0
-1009 -111 112 0
-1009 -118 119 0
-1009 -195 196 0
-1009 -202 203 0
-1009 -209 210 0
-1015 -90 91 0
-1015 -97 98 0
-1015 -104 105 0
-1015 -111 112 0
-1015 -118 119 0
-1015 -195 196 0
-1015 -202 203 0
-1015 -209 210 0
-1021 -90 91 0
-1021 -97 98 0
-1021 -104 105 0
-1021 -111 112 0
-1021 -118 119 0
-1021 -195 196 0
-1021 -202 203 0
-1021 -209 210 0
-1027 -90 91 0
-1027 -97 98 0
-1027 -104 105 0
-1027 -111 112 0
-1027 -118 119 0
-1027 -195 196 0
-1027 -202 203 0
-1027 -209 210 0
-1033 -90 91 0
-1033 -97 98 0
-1033 -104 105 0
-1033 -111 112 0
-1033 -118 119 0
-1033 -195 196 0
-1033 -202 203 0
-1033 -209 210 0
-1039 -90 91 0
-1039 -97 98 0
-1039 -104 105 0
-1039 -111 112 0
-1039 -118 119 0
-1039 -195 196 0
-1039 -202 203 0
-1039 -209 210 0
-1045 -90 91 0
-1045 -97 98 0
-1045 -104 105 0
-1045 -111 112 0
-1045 -118 119 0
-1045 -195 196 0
-1045 -202 203 0
-1045 -209 210 0
-1051 -90 91 0
-1051 -97 98 0
-1051 -104 105 0
-1051 -111 112 0
-1051 -118 119 0
-1051 -195 196 0
-1051 -202 203 0
-1051 -209 210 0
-1177 -90 91 0
-1177 -97 98 0
-1177 -104 105 0
-1177 -111 112 0
-1177 -118 119 0
-1177 -195 196 0
-1177 -202 203 0
-1177 -209 210 0
-1183 -90 91 0
-1183 -97 98 0
-1183 -104 105 0
-1183 -111 112 0
-1183 -118 119 0
-1183 -195 196 0
-1183 -202 203 0
-1183 -209 210 0
-1189 -90 91 0
-1189 -97 98 0
-1189 -104 105 0
-1189 -111 112 0
-1189 -118 119 0
-1189 -195 196 0
-1189 -202 203 0
-1189 -209 210 0
-1195 -90 91 0
-1195 -97 98 0
-1195 -104 105 0
-1195 -111 112 0
-1195 -118 119 0
-1195 -195 196 0
-1195 -202 203 0
-1195 -209 210 0
-1201 -90 91 0
-1201 -97 98 0
-1201 -104 105 0
-1201 -111 112 0
-1201 -118 119 0
-1201 -195 196 0
-1201 -202 203 0
-1201 -209 210 0
-1207 -90 91 0
-1207 -97 98 0
-1207 -104 105 0
-1207 -111 112 0
-1207 -118 119 0
-1207 -195 196 0
-1207 -202 203 0
-1207 -209 210 0
-1213 -90 91 0
-1213 -97 98 0
-1213 -104 105 0
-1213 -111 112 0
-1213 -118 119 0
-1213 -195 196 0
-1213 -202 203 0
-1213 -209 210 0
-1219 -90 91 0
-1219 -97 98 0
-1219 -104 105 0
-1219 -111 112 0
-1219 -118 119 0
-1219 -195 196 0
-1219 -202 203 0
-1219 -209 210 0
-1225 -90 91 0
-1225 -97 98 0
-1225 -104 105 0
-1225 -111 112 0
-1225 -118 119 0
-1225 -195 196 0
-1225 -202 203 0
-1225 -209 210 0
-1231 -90 91 0
-1231 -97 98 0
-1231 -104 105 0
-1231 -111 112 0
-1231 -118 119 0
-1231 -195 196 0
-1231 -202 203 0
-1231 -209 210 0
-1237 -90 91 0
-1237 -97 98 0
-1237 -104 105 0
-1237 -111 112 0
-1237 -118 119 0
-1237 -195 196 0
-1237 -202 203 0
-1237 -209 210 0
-1243 -90 91 0
-1243 -97 98 0
-1243 -104 105 0
-1243 -111 112 0
-1243 -118 119 0
-1243 -195 196 0
-1243 -202 203 0
-1243 -209 210 0
-1249 -90 91 0
-1249 -97 98 0
-1249 -104 105 0
-1249 -111 112 0
-1249 -118 119 0
-1249 -195 196 0
-1249 -202 203 0
-1249 -209 210 0
-1255 -90 91 0
-1255 -97 98 0
-1255 -104 105 0
-1255 -111 112 0
-1255 -118 119 0
-1255 -195 196 0
-1255 -202 203 0
-1255 -209 210 0
-1261 -90 91 0
-1261 -97 98 0
-1261 -104 105 0
-1261 -111 112 0
-1261 -118 119 0
-1261 -195 196 0
-1261 -202 203 0
-1261 -209 210 0
-1267 -90 91 0
-1267 -97 98 0
-1267 -104 105 0
-1267 -111 112 0
-1267 -118 119 0
-1267 -195 196 0
-1267 -202 203 0
-1267 -209 210 0
-769 -125 126 0
-769 -132 133 0
-769 -139 140 0
-769 -146 147 0
-769 -216 217 0
-769 -223 224 0
-769 -230 231 0
-775 -125 126 0
-775 -132 133 0
-775 -139 140 0
-775 -146 147 0
-775 -216 217 0
-775 -223 224 0
-775 -230 231 0
-781 -125 126 0
-781 -132 133 0
-781 -139 140 0
-781 -146 147 0
-781 -216 217 0
-781 -223 224 0
-781 -230 231 0
-787 -125 126 0
-787 -132 133 0
-787 -139 140 0
-787 -146 147 0
-787 -216 217 0
-787 -223 224 0
-787 -230 231 0
-793 -125 126 0
-793 -132 133 0
-793 -139 140 0
-793 -146 147 0
-793 -216 217 0
-793 -223 224 0
-793 -230 231 0
-799 -125 126 0
-799 -132 133 0
-799 -139 140 0
-799 -146 147 0
-799 -216 217 0
-799 -223 224 0
-799 -230 231 0
-805 -125 126 0
-805 -132 133 0
-805 -139 140 0
-805 -146 147 0
-805 -216 217 0
-805 -223 224 0
-805 -230 231 0
-811 -125 126 0
-811 -132 133 0
-811 -139 140 0
-811 -146 147 0
-811 -216 217 0
-811 -223 224 0
-811 -230 231 0
-817 -125 126 0
-817 -132 133 0
-817 -139 140 0
-817 -146 147 0
-817 -216 217 0
-817 -223 224 0
-817 -230 231 0
-823 -125 126 0
-823 -132 133 0
-823 -139 140 0
-823 -146 147 0
-823 -216 217 0
-823 -223 224 0
-823 -230 231 0
-829 -125 126 0
-829 -132 133 0
-829 -139 140 0
-829 -146 147 0
-829 -216 217 0
-829 -223 224 0
-829 -230 231 0
-835 -125 126 0
-835 -132 133 0
-835 -139 140 0
-835 -146 147 0
-835 -216 217 0
-835 -223 224 0
-835 -230 231 0
-841 -125 126 0
-841 -132 133 0
-841 -139 140 0
-841 -146 147 0
-841 -216 217 0
-841 -223 224 0
-841 -230 231 0
-847 -125 126 0
-847 -132 133 0
-847 -139 140 0
-847 -146 147 0
-847 -216 217 0
-847 -223 224 0
-847 -230 231 0
-853 -125 126 0
-853 -132 133 0
-853 -139 140 0
-853 -146 147 0
-853 -216 217 0
-853 -223 224 0
-853 -230 231 0
-859 -125 126 0
-859 -132 133 0
-859 -139 140 0
-859 -146 147 0
-859 -216 217 0
-859 -223 224 0
-859 -230 231 0
-865 -125 126 0
-865 -132 133 0
-865 -139 140 0
-865 -146 147 0
-865 -216 217 0
-865 -223 224 0
-865 -230 231 0
-871 -125 126 0
-871 -132 133 0
-871 -139 140 0
-871 -146 147 0
-871 -216 217 0
-871 -223 224 0
-871 -230 231 0
-877 -125 126 0
-877 -132 133 0
-877 -139 140 0
-877 -146 147 0
-877 -216 217 0
-877 -223 224 0
-877 -230 231 0
-883 -125 126 0
-883 -132 133 0
-883 -139 140 0
-883 -146 147 0
-883 -216 217 0
-883 -223 224 0
-883 -230 231 0
-889 -125 126 0
-889 -132 133 0
-889 -139 140 0
-889 -146 147 0
-889 -216 217 0
-889 -223 224 0
-889 -230 231 0
-895 -125 126 0
-895 -132 133 0
-895 -139 140 0
-895 -146 147 0
-895 -216 217 0
-895 -223 224 0
-895 -230 231 0
-901 -125 126 0
-901 -132 133 0
-901 -139 140 0
-901 -146 147 0
-901 -216 217 0
-901 -223 224 0
-901 -230 231 0
-907 -125 126 0
-907 -132 133 0
-907 -139 140 0
-907 -146 147 0
-907 -216 217 0
-907 -223 224 0
-907 -230 231 0
-913 -125 126 0
-913 -132 133 0
-913 -139 140 0
-913 -146 147 0
-913 -216 217 0
-913 -223 224 0
-913 -230 231 0
-919 -125 126 0
-919 -132 133 0
-919 -139 140 0
-919 -146 147 0
-919 -216 217 0
-919 -223 224 0
-919 -230 231 0
-925 -125 126 0
-925 -132 133 0
-925 -139 140 0
-925 -146 147 0
-925 -216 217 0
-925 -223 224 0
-925 -230 231 0
-931 -125 126 0
-931 -132 133 0
-931 -139 140 0
-931 -146 147 0
-931 -216 217 0
-931 -223 224 0
-931 -230 231 0
-937 -125 126 0
-937 -132 133 0
-937 -139 140 0
-937 -146 147 0
-937 -216 217 0
-937 -223 224 0
-937 -230 231 0
-943 -125 126 0
-943 -132 133 0
-943 -139 140 0
-943 -146 147 0
-943 -216 217 0
-943 -223 224 0
-943 -230 231 0
-949 -125 126 0
-949 -132 133 0
-949 -139 140 0
-949 -146 147 0
-949 -216 217 0
-949 -223 224 0
-949 -230 231 0
-955 -125 126 0
-955 -132 133 0
-955 -139 140 0
-955 -146 147 0
-955 -216 217 0
-955 -223 224 0
-955 -230 231 0
-961 -125 126 0
-961 -132 133 0
-961 -139 140 0
-961 -146 147 0
-961 -216 217 0
-961 -223 224 0
-961 -230 231 0
-967 -125 126 0
-967 -132 133 0
-967 -139 140 0
-967 -146 147 0
-967 -216 217 0
-967 -223 224 0
-967 -230 231 0
-973 -125 126 0
-973 -132 133 0
-973 -139 140 0
-973 -146 147 0
-973 -216 217 0
-973 -223 224 0
-973 -230 231 0
-979 -125 126 0
-979 -132 133 0
-979 -139 140 0
-979 -146 147 0
-979 -216 217 0
-979 -223 224 0
-979 -230 231 0
-985 -125 126 0
-985 -132 133 0
-985 -139 140 0
-985 -146 147 0
-985 -216 217 0
-985 -223 224 0
-985 -230 231 0
-991 -125 126 0
-991 -132 133 0
-991 -139 140 0
-991 -146 147 0
-991 -216 217 0
-991 -223 224 0
-991 -230 231 0
-997 -125 126 0
-997 -132 133 0
-997 -139 140 0
-997 -146 147 0
-997 -216 217 0
-997 -223 224 0
-997 -230 231 0
-1003 -125 126 0
-1003 -132 133 0
-1003 -139 140 0
-1003 -146 147 0
-1003 -216 217 0
-1003 -223 224 0
-1003 -230 231 0
-1009 -125 126 0
-1009 -132 133 0
-1009 -139 140 0
-1009 -146 147 0
-1009 -216 217 0
-1009 -223 224 0
-1009 -230 231 0
-1015 -125 126 0
-1015 -132 133 0
-1015 -139 140 0
-1015 -146 147 0
-1015 -216 217 0
-1015 -223 224 0
-1015 -230 231 0
-1021 -125 126 0
-1021 -132 133 0
-1021 -139 140 0
-1021 -146 147 0
-1021 -216 217 0
-1021 -223 224 0
-1021 -230 231 0
-1027 -125 126 0
-1027 -132 133 0
-1027 -139 140 0
-1027 -146 147 0
-1027 -216 217 0
-1027 -223 224 0
-1027 -230 231 0
-1033 -125 126 0
-1033 -132 133 0
-1033 -139 140 0
-1033 -146 147 0
-1033 -216 217 0
-1033 -223 224 0
-1033 -230 231 0
-1039 -125 126 0
-1039 -132 133 0
-1039 -139 140 0
-1039 -146 147 0
-1039 -216 217 0
-1039 -223 224 0
-1039 -230 231 0
-1045 -125 126 0
-1045 -132 133 0
-1045 -139 140 0
-1045 -146 147 0
-1045 -216 217 0
-1045 -223 224 0
-1045 -230 231 0
-1051 -125 126 0
-1051 -132 133 0
-1051 -139 140 0
-1051 -146 147 0
-1051 -216 217 0
-1051 -223 224 0
-1051 -230 231 0
-1057 -125 126 0
-1057 -132 133 0
-1057 -139 140 0
-1057 -146 147 0
-1057 -216 217 0
-1057 -223 224 0
-1057 -230 231 0
-1063 -125 126 0
-1063 -132 133 0
-1063 -139 140 0
-1063 -146 147 0
-1063 -216 217 0
-1063 -223 224 0
-1063 -230 231 0
-1069 -125 126 0
-1069 -132 133 0
-1069 -139 140 0
-1069 -146 147 0
-1069 -216 217 0
-1069 -223 224 0
-1069 -230 231 0
-1075 -125 126 0
-1075 -132 133 0
-1075 -139 140 0
-1075 -146 147 0
-1075 -216 217 0
-1075 -223 224 0
-1075 -230 231 0
-1081 -125 126 0
-1081 -132 133 0
-1081 -139 140 0
-1081 -146 147 0
-1081 -216 217 0
-1081 -223 224 0
-1081 -230 231 0
-1087 -125 126 0
-1087 -132 133 0
-1087 -139 140 0
-1087 -146 147 0
-1087 -216 217 0
-1087 -223 224 0
-1087 -230 231 0
-1093 -125 126 0
-1093 -132 133 0
-1093 -139 140 0
-1093 -146 147 0
-1093 -216 217 0
-1093 -223 224 0
-1093 -230 231 0
-1099 -125 126 0
-1099 -132 133 0
-1099 -139 140 0
-1099 -146 147 0
-1099 -216 217 0
-1099 -223 224 0
-1099 -230 231 0
-1105 -125 126 0
-1105 -132 133 0
-1105 -139 140 0
-1105 -146 147 0
-1105 -216 217 0
-1105 -223 224 0
-1105 -230 231 0
-1111 -125 126 0
-1111 -132 133 0
-1111 -139 140 0
-1111 -146 147 0
-1111 -216 217 0
-1111 -223 224 0
-1111 -230 231 0
-1117 -125 126 0
-1117 -132 133 0
-1117 -139 140 0
-1117 -146 147 0
-1117 -216 217 0
-1117 -223 224 0
-1117 -230 231 0
-1123 -125 126 0
-1123 -132 133 0
-1123 -139 140 0
-1123 -146 147 0
-1123 -216 217 0
-1123 -223 224 0
-1123 -230 231 0
-1129 -125 126 0
-1129 -132 133 0
-1129 -139 140 0
-1129 -146 147 0
-1129 -216 217 0
-1129 -223 224 0
-1129 -230 231 0
-1135 -125 126 0
-1135 -132 133 0
-1135 -139 140 0
-1135 -146 147 0
-1135 -216 217 0
-1135 -223 224 0
-1135 -230 231 0
-1141 -125 126 0
-1141 -132 133 0
-1141 -139 140 0
-1141 -146 147 0
-1141 -216 217 0
-1141 -223 224 0
-1141 -230 231 0
-1147 -125 126 0
-1147 -132 133 0
-1147 -139 140 0
-1147 -146 147 0
-1147 -216 217 0
-1147 -223 224 0
-1147 -230 231 0
-1153 -125 126 0
-1153 -132 133 0
-1153 -139 140 0
-1153 -146 147 0
-1153 -216 217 0
-1153 -223 224 0
-1153 -230 231 0
-1159 -125 126 0
-1159 -132 133 0
-1159 -139 140 0
-1159 -146 147 0
-1159 -216 217 0
-1159 -223 224 0
-1159 -230 231 0
-1165 -125 126 0
-1165 -132 133 0
-1165 -139 140 0
-1165 -146 147 0
-1165 -216 217 0
-1165 -223 224 0
-1165 -230 231 0
-1171 -125 126 0
-1171 -132 133 0
-1171 -139 140 0
-1171 -146 147 0
-1171 -216 217 0
-1171 -223 224 0
-1171 -230 231 0
