p cnf 1074 42893
1 7 13 19 25 31 0
-1 -7 0
-1 -13 0
-1 -19 0
-1 -25 0
-1 -31 0
-7 -13 0
-7 -19 0
-7 -25 0
-7 -31 0
-13 -19 0
-13 -25 0
-13 -31 0
-19 -25 0
-19 -31 0
-25 -31 0
127 133 139 0
-127 -133 0
-127 -139 0
-133 -139 0
37 43 49 55 61 67 0
-37 -43 0
-37 -49 0
-37 -55 0
-37 -61 0
-37 -67 0
-43 -49 0
-43 -55 0
-43 -61 0
-43 -67 0
-49 -55 0
-49 -61 0
-49 -67 0
-55 -61 0
-55 -67 0
-61 -67 0
145 151 157 0
-145 -151 0
-145 -157 0
-151 -157 0
73 79 85 91 97 0
-73 -79 0
-73 -85 0
-73 -91 0
-73 -97 0
-79 -85 0
-79 -91 0
-79 -97 0
-85 -91 0
-85 -97 0
-91 -97 0
163 169 175 0
-163 -169 0
-163 -175 0
-169 -175 0
103 109 115 121 0
-103 -109 0
-103 -115 0
-103 -121 0
-109 -115 0
-109 -121 0
-115 -121 0
181 187 193 0
-181 -187 0
-181 -193 0
-187 -193 0
2 8 14 20 26 32 0
-2 -8 0
-2 -14 0
-2 -20 0
-2 -26 0
-2 -32 0
-8 -14 0
-8 -20 0
-8 -26 0
-8 -32 0
-14 -20 0
-14 -26 0
-14 -32 0
-20 -26 0
-20 -32 0
-26 -32 0
128 134 140 0
-128 -134 0
-128 -140 0
-134 -140 0
38 44 50 56 62 68 0
-38 -44 0
-38 -50 0
-38 -56 0
-38 -62 0
-38 -68 0
-44 -50 0
-44 -56 0
-44 -62 0
-44 -68 0
-50 -56 0
-50 -62 0
-50 -68 0
-56 -62 0
-56 -68 0
-62 -68 0
146 152 158 0
-146 -152 0
-146 -158 0
-152 -158 0
74 80 86 92 98 0
-74 -80 0
-74 -86 0
-74 -92 0
-74 -98 0
-80 -86 0
-80 -92 0
-80 -98 0
-86 -92 0
-86 -98 0
-92 -98 0
164 170 176 0
-164 -170 0
-164 -176 0
-170 -176 0
104 110 116 122 0
-104 -110 0
-104 -116 0
-104 -122 0
-110 -116 0
-110 -122 0
-116 -122 0
182 188 194 0
-182 -188 0
-182 -194 0
-188 -194 0
3 9 15 21 27 33 0
-3 -9 0
-3 -15 0
-3 -21 0
-3 -27 0
-3 -33 0
-9 -15 0
-9 -21 0
-9 -27 0
-9 -33 0
-15 -21 0
-15 -27 0
-15 -33 0
-21 -27 0
-21 -33 0
-27 -33 0
129 135 141 0
-129 -135 0
-129 -141 0
-135 -141 0
39 45 51 57 63 69 0
-39 -45 0
-39 -51 0
-39 -57 0
-39 -63 0
-39 -69 0
-45 -51 0
-45 -57 0
-45 -63 0
-45 -69 0
-51 -57 0
-51 -63 0
-51 -69 0
-57 -63 0
-57 -69 0
-63 -69 0
147 153 159 0
-147 -153 0
-147 -159 0
-153 -159 0
75 81 87 93 99 0
-75 -81 0
-75 -87 0
-75 -93 0
-75 -99 0
-81 -87 0
-81 -93 0
-81 -99 0
-87 -93 0
-87 -99 0
-93 -99 0
165 171 177 0
-165 -171 0
-165 -177 0
-171 -177 0
105 111 117 123 0
-105 -111 0
-105 -117 0
-105 -123 0
-111 -117 0
-111 -123 0
-117 -123 0
183 189 195 0
-183 -189 0
-183 -195 0
-189 -195 0
4 10 16 22 28 34 0
-4 -10 0
-4 -16 0
-4 -22 0
-4 -28 0
-4 -34 0
-10 -16 0
-10 -22 0
-10 -28 0
-10 -34 0
-16 -22 0
-16 -28 0
-16 -34 0
-22 -28 0
-22 -34 0
-28 -34 0
130 136 142 0
-130 -136 0
-130 -142 0
-136 -142 0
40 46 52 58 64 70 0
-40 -46 0
-40 -52 0
-40 -58 0
-40 -64 0
-40 -70 0
-46 -52 0
-46 -58 0
-46 -64 0
-46 -70 0
-52 -58 0
-52 -64 0
-52 -70 0
-58 -64 0
-58 -70 0
-64 -70 0
148 154 160 0
-148 -154 0
-148 -160 0
-154 -160 0
76 82 88 94 100 0
-76 -82 0
-76 -88 0
-76 -94 0
-76 -100 0
-82 -88 0
-82 -94 0
-82 -100 0
-88 -94 0
-88 -100 0
-94 -100 0
166 172 178 0
-166 -172 0
-166 -178 0
-172 -178 0
106 112 118 124 0
-106 -112 0
-106 -118 0
-106 -124 0
-112 -118 0
-112 -124 0
-118 -124 0
184 190 196 0
-184 -190 0
-184 -196 0
-190 -196 0
5 11 17 23 29 35 0
-5 -11 0
-5 -17 0
-5 -23 0
-5 -29 0
-5 -35 0
-11 -17 0
-11 -23 0
-11 -29 0
-11 -35 0
-17 -23 0
-17 -29 0
-17 -35 0
-23 -29 0
-23 -35 0
-29 -35 0
131 137 143 0
-131 -137 0
-131 -143 0
-137 -143 0
41 47 53 59 65 71 0
-41 -47 0
-41 -53 0
-41 -59 0
-41 -65 0
-41 -71 0
-47 -53 0
-47 -59 0
-47 -65 0
-47 -71 0
-53 -59 0
-53 -65 0
-53 -71 0
-59 -65 0
-59 -71 0
-65 -71 0
149 155 161 0
-149 -155 0
-149 -161 0
-155 -161 0
77 83 89 95 101 0
-77 -83 0
-77 -89 0
-77 -95 0
-77 -101 0
-83 -89 0
-83 -95 0
-83 -101 0
-89 -95 0
-89 -101 0
-95 -101 0
167 173 179 0
-167 -173 0
-167 -179 0
-173 -179 0
107 113 119 125 0
-107 -113 0
-107 -119 0
-107 -125 0
-113 -119 0
-113 -125 0
-119 -125 0
185 191 197 0
-185 -191 0
-185 -197 0
-191 -197 0
6 12 18 24 30 36 0
-6 -12 0
-6 -18 0
-6 -24 0
-6 -30 0
-6 -36 0
-12 -18 0
-12 -24 0
-12 -30 0
-12 -36 0
-18 -24 0
-18 -30 0
-18 -36 0
-24 -30 0
-24 -36 0
-30 -36 0
132 138 144 0
-132 -138 0
-132 -144 0
-138 -144 0
42 48 54 60 66 72 0
-42 -48 0
-42 -54 0
-42 -60 0
-42 -66 0
-42 -72 0
-48 -54 0
-48 -60 0
-48 -66 0
-48 -72 0
-54 -60 0
-54 -66 0
-54 -72 0
-60 -66 0
-60 -72 0
-66 -72 0
150 156 162 0
-150 -156 0
-150 -162 0
-156 -162 0
78 84 90 96 102 0
-78 -84 0
-78 -90 0
-78 -96 0
-78 -102 0
-84 -90 0
-84 -96 0
-84 -102 0
-90 -96 0
-90 -102 0
-96 -102 0
168 174 180 0
-168 -174 0
-168 -180 0
-174 -180 0
108 114 120 126 0
-108 -114 0
-108 -120 0
-108 -126 0
-114 -120 0
-114 -126 0
-120 -126 0
186 192 198 0
-186 -192 0
-186 -198 0
-192 -198 0
-223 127 0
-223 1 0
-1 -127 223 0
-241 127 0
-241 7 0
-7 -127 241 0
-259 127 0
-259 13 0
-13 -127 259 0
-277 127 0
-277 19 0
-19 -127 277 0
-295 127 0
-295 25 0
-25 -127 295 0
-313 127 0
-313 31 0
-31 -127 313 0
-229 133 0
-229 1 0
-1 -133 229 0
-247 133 0
-247 7 0
-7 -133 247 0
-265 133 0
-265 13 0
-13 -133 265 0
-283 133 0
-283 19 0
-19 -133 283 0
-301 133 0
-301 25 0
-25 -133 301 0
-319 133 0
-319 31 0
-31 -133 319 0
-235 139 0
-235 1 0
-1 -139 235 0
-253 139 0
-253 7 0
-7 -139 253 0
-271 139 0
-271 13 0
-13 -139 271 0
-289 139 0
-289 19 0
-19 -139 289 0
-307 139 0
-307 25 0
-25 -139 307 0
-325 139 0
-325 31 0
-31 -139 325 0
-331 145 0
-331 37 0
-37 -145 331 0
-349 145 0
-349 43 0
-43 -145 349 0
-367 145 0
-367 49 0
-49 -145 367 0
-385 145 0
-385 55 0
-55 -145 385 0
-403 145 0
-403 61 0
-61 -145 403 0
-421 145 0
-421 67 0
-67 -145 421 0
-337 151 0
-337 37 0
-37 -151 337 0
-355 151 0
-355 43 0
-43 -151 355 0
-373 151 0
-373 49 0
-49 -151 373 0
-391 151 0
-391 55 0
-55 -151 391 0
-409 151 0
-409 61 0
-61 -151 409 0
-427 151 0
-427 67 0
-67 -151 427 0
-343 157 0
-343 37 0
-37 -157 343 0
-361 157 0
-361 43 0
-43 -157 361 0
-379 157 0
-379 49 0
-49 -157 379 0
-397 157 0
-397 55 0
-55 -157 397 0
-415 157 0
-415 61 0
-61 -157 415 0
-433 157 0
-433 67 0
-67 -157 433 0
-439 163 0
-439 73 0
-73 -163 439 0
-457 163 0
-457 73 79 0
-73 -163 457 0
-79 -163 457 0
-475 163 0
-475 79 85 0
-79 -163 475 0
-85 -163 475 0
-493 163 0
-493 85 91 0
-85 -163 493 0
-91 -163 493 0
-511 163 0
-511 91 97 0
-91 -163 511 0
-97 -163 511 0
-529 163 0
-529 97 0
-97 -163 529 0
-445 169 0
-445 73 0
-73 -169 445 0
-463 169 0
-463 73 79 0
-73 -169 463 0
-79 -169 463 0
-481 169 0
-481 79 85 0
-79 -169 481 0
-85 -169 481 0
-499 169 0
-499 85 91 0
-85 -169 499 0
-91 -169 499 0
-517 169 0
-517 91 97 0
-91 -169 517 0
-97 -169 517 0
-535 169 0
-535 97 0
-97 -169 535 0
-451 175 0
-451 73 0
-73 -175 451 0
-469 175 0
-469 73 79 0
-73 -175 469 0
-79 -175 469 0
-487 175 0
-487 79 85 0
-79 -175 487 0
-85 -175 487 0
-505 175 0
-505 85 91 0
-85 -175 505 0
-91 -175 505 0
-523 175 0
-523 91 97 0
-91 -175 523 0
-97 -175 523 0
-541 175 0
-541 97 0
-97 -175 541 0
-547 181 0
-547 103 0
-103 -181 547 0
-565 181 0
-565 103 109 0
-103 -181 565 0
-109 -181 565 0
-583 181 0
-583 103 109 115 0
-103 -181 583 0
-109 -181 583 0
-115 -181 583 0
-601 181 0
-601 109 115 121 0
-109 -181 601 0
-115 -181 601 0
-121 -181 601 0
-619 181 0
-619 115 121 0
-115 -181 619 0
-121 -181 619 0
-637 181 0
-637 121 0
-121 -181 637 0
-553 187 0
-553 103 0
-103 -187 553 0
-571 187 0
-571 103 109 0
-103 -187 571 0
-109 -187 571 0
-589 187 0
-589 103 109 115 0
-103 -187 589 0
-109 -187 589 0
-115 -187 589 0
-607 187 0
-607 109 115 121 0
-109 -187 607 0
-115 -187 607 0
-121 -187 607 0
-625 187 0
-625 115 121 0
-115 -187 625 0
-121 -187 625 0
-643 187 0
-643 121 0
-121 -187 643 0
-559 193 0
-559 103 0
-103 -193 559 0
-577 193 0
-577 103 109 0
-103 -193 577 0
-109 -193 577 0
-595 193 0
-595 103 109 115 0
-103 -193 595 0
-109 -193 595 0
-115 -193 595 0
-613 193 0
-613 109 115 121 0
-109 -193 613 0
-115 -193 613 0
-121 -193 613 0
-631 193 0
-631 115 121 0
-115 -193 631 0
-121 -193 631 0
-649 193 0
-649 121 0
-121 -193 649 0
-224 128 0
-224 2 0
-2 -128 224 0
-242 128 0
-242 8 0
-8 -128 242 0
-260 128 0
-260 14 0
-14 -128 260 0
-278 128 0
-278 20 0
-20 -128 278 0
-296 128 0
-296 26 0
-26 -128 296 0
-314 128 0
-314 32 0
-32 -128 314 0
-230 134 0
-230 2 0
-2 -134 230 0
-248 134 0
-248 8 0
-8 -134 248 0
-266 134 0
-266 14 0
-14 -134 266 0
-284 134 0
-284 20 0
-20 -134 284 0
-302 134 0
-302 26 0
-26 -134 302 0
-320 134 0
-320 32 0
-32 -134 320 0
-236 140 0
-236 2 0
-2 -140 236 0
-254 140 0
-254 8 0
-8 -140 254 0
-272 140 0
-272 14 0
-14 -140 272 0
-290 140 0
-290 20 0
-20 -140 290 0
-308 140 0
-308 26 0
-26 -140 308 0
-326 140 0
-326 32 0
-32 -140 326 0
-332 146 0
-332 38 0
-38 -146 332 0
-350 146 0
-350 44 0
-44 -146 350 0
-368 146 0
-368 50 0
-50 -146 368 0
-386 146 0
-386 56 0
-56 -146 386 0
-404 146 0
-404 62 0
-62 -146 404 0
-422 146 0
-422 68 0
-68 -146 422 0
-338 152 0
-338 38 0
-38 -152 338 0
-356 152 0
-356 44 0
-44 -152 356 0
-374 152 0
-374 50 0
-50 -152 374 0
-392 152 0
-392 56 0
-56 -152 392 0
-410 152 0
-410 62 0
-62 -152 410 0
-428 152 0
-428 68 0
-68 -152 428 0
-344 158 0
-344 38 0
-38 -158 344 0
-362 158 0
-362 44 0
-44 -158 362 0
-380 158 0
-380 50 0
-50 -158 380 0
-398 158 0
-398 56 0
-56 -158 398 0
-416 158 0
-416 62 0
-62 -158 416 0
-434 158 0
-434 68 0
-68 -158 434 0
-440 164 0
-440 74 0
-74 -164 440 0
-458 164 0
-458 74 80 0
-74 -164 458 0
-80 -164 458 0
-476 164 0
-476 80 86 0
-80 -164 476 0
-86 -164 476 0
-494 164 0
-494 86 92 0
-86 -164 494 0
-92 -164 494 0
-512 164 0
-512 92 98 0
-92 -164 512 0
-98 -164 512 0
-530 164 0
-530 98 0
-98 -164 530 0
-446 170 0
-446 74 0
-74 -170 446 0
-464 170 0
-464 74 80 0
-74 -170 464 0
-80 -170 464 0
-482 170 0
-482 80 86 0
-80 -170 482 0
-86 -170 482 0
-500 170 0
-500 86 92 0
-86 -170 500 0
-92 -170 500 0
-518 170 0
-518 92 98 0
-92 -170 518 0
-98 -170 518 0
-536 170 0
-536 98 0
-98 -170 536 0
-452 176 0
-452 74 0
-74 -176 452 0
-470 176 0
-470 74 80 0
-74 -176 470 0
-80 -176 470 0
-488 176 0
-488 80 86 0
-80 -176 488 0
-86 -176 488 0
-506 176 0
-506 86 92 0
-86 -176 506 0
-92 -176 506 0
-524 176 0
-524 92 98 0
-92 -176 524 0
-98 -176 524 0
-542 176 0
-542 98 0
-98 -176 542 0
-548 182 0
-548 104 0
-104 -182 548 0
-566 182 0
-566 104 110 0
-104 -182 566 0
-110 -182 566 0
-584 182 0
-584 104 110 116 0
-104 -182 584 0
-110 -182 584 0
-116 -182 584 0
-602 182 0
-602 110 116 122 0
-110 -182 602 0
-116 -182 602 0
-122 -182 602 0
-620 182 0
-620 116 122 0
-116 -182 620 0
-122 -182 620 0
-638 182 0
-638 122 0
-122 -182 638 0
-554 188 0
-554 104 0
-104 -188 554 0
-572 188 0
-572 104 110 0
-104 -188 572 0
-110 -188 572 0
-590 188 0
-590 104 110 116 0
-104 -188 590 0
-110 -188 590 0
-116 -188 590 0
-608 188 0
-608 110 116 122 0
-110 -188 608 0
-116 -188 608 0
-122 -188 608 0
-626 188 0
-626 116 122 0
-116 -188 626 0
-122 -188 626 0
-644 188 0
-644 122 0
-122 -188 644 0
-560 194 0
-560 104 0
-104 -194 560 0
-578 194 0
-578 104 110 0
-104 -194 578 0
-110 -194 578 0
-596 194 0
-596 104 110 116 0
-104 -194 596 0
-110 -194 596 0
-116 -194 596 0
-614 194 0
-614 110 116 122 0
-110 -194 614 0
-116 -194 614 0
-122 -194 614 0
-632 194 0
-632 116 122 0
-116 -194 632 0
-122 -194 632 0
-650 194 0
-650 122 0
-122 -194 650 0
-225 129 0
-225 3 0
-3 -129 225 0
-243 129 0
-243 9 0
-9 -129 243 0
-261 129 0
-261 15 0
-15 -129 261 0
-279 129 0
-279 21 0
-21 -129 279 0
-297 129 0
-297 27 0
-27 -129 297 0
-315 129 0
-315 33 0
-33 -129 315 0
-231 135 0
-231 3 0
-3 -135 231 0
-249 135 0
-249 9 0
-9 -135 249 0
-267 135 0
-267 15 0
-15 -135 267 0
-285 135 0
-285 21 0
-21 -135 285 0
-303 135 0
-303 27 0
-27 -135 303 0
-321 135 0
-321 33 0
-33 -135 321 0
-237 141 0
-237 3 0
-3 -141 237 0
-255 141 0
-255 9 0
-9 -141 255 0
-273 141 0
-273 15 0
-15 -141 273 0
-291 141 0
-291 21 0
-21 -141 291 0
-309 141 0
-309 27 0
-27 -141 309 0
-327 141 0
-327 33 0
-33 -141 327 0
-333 147 0
-333 39 0
-39 -147 333 0
-351 147 0
-351 45 0
-45 -147 351 0
-369 147 0
-369 51 0
-51 -147 369 0
-387 147 0
-387 57 0
-57 -147 387 0
-405 147 0
-405 63 0
-63 -147 405 0
-423 147 0
-423 69 0
-69 -147 423 0
-339 153 0
-339 39 0
-39 -153 339 0
-357 153 0
-357 45 0
-45 -153 357 0
-375 153 0
-375 51 0
-51 -153 375 0
-393 153 0
-393 57 0
-57 -153 393 0
-411 153 0
-411 63 0
-63 -153 411 0
-429 153 0
-429 69 0
-69 -153 429 0
-345 159 0
-345 39 0
-39 -159 345 0
-363 159 0
-363 45 0
-45 -159 363 0
-381 159 0
-381 51 0
-51 -159 381 0
-399 159 0
-399 57 0
-57 -159 399 0
-417 159 0
-417 63 0
-63 -159 417 0
-435 159 0
-435 69 0
-69 -159 435 0
-441 165 0
-441 75 0
-75 -165 441 0
-459 165 0
-459 75 81 0
-75 -165 459 0
-81 -165 459 0
-477 165 0
-477 81 87 0
-81 -165 477 0
-87 -165 477 0
-495 165 0
-495 87 93 0
-87 -165 495 0
-93 -165 495 0
-513 165 0
-513 93 99 0
-93 -165 513 0
-99 -165 513 0
-531 165 0
-531 99 0
-99 -165 531 0
-447 171 0
-447 75 0
-75 -171 447 0
-465 171 0
-465 75 81 0
-75 -171 465 0
-81 -171 465 0
-483 171 0
-483 81 87 0
-81 -171 483 0
-87 -171 483 0
-501 171 0
-501 87 93 0
-87 -171 501 0
-93 -171 501 0
-519 171 0
-519 93 99 0
-93 -171 519 0
-99 -171 519 0
-537 171 0
-537 99 0
-99 -171 537 0
-453 177 0
-453 75 0
-75 -177 453 0
-471 177 0
-471 75 81 0
-75 -177 471 0
-81 -177 471 0
-489 177 0
-489 81 87 0
-81 -177 489 0
-87 -177 489 0
-507 177 0
-507 87 93 0
-87 -177 507 0
-93 -177 507 0
-525 177 0
-525 93 99 0
-93 -177 525 0
-99 -177 525 0
-543 177 0
-543 99 0
-99 -177 543 0
-549 183 0
-549 105 0
-105 -183 549 0
-567 183 0
-567 105 111 0
-105 -183 567 0
-111 -183 567 0
-585 183 0
-585 105 111 117 0
-105 -183 585 0
-111 -183 585 0
-117 -183 585 0
-603 183 0
-603 111 117 123 0
-111 -183 603 0
-117 -183 603 0
-123 -183 603 0
-621 183 0
-621 117 123 0
-117 -183 621 0
-123 -183 621 0
-639 183 0
-639 123 0
-123 -183 639 0
-555 189 0
-555 105 0
-105 -189 555 0
-573 189 0
-573 105 111 0
-105 -189 573 0
-111 -189 573 0
-591 189 0
-591 105 111 117 0
-105 -189 591 0
-111 -189 591 0
-117 -189 591 0
-609 189 0
-609 111 117 123 0
-111 -189 609 0
-117 -189 609 0
-123 -189 609 0
-627 189 0
-627 117 123 0
-117 -189 627 0
-123 -189 627 0
-645 189 0
-645 123 0
-123 -189 645 0
-561 195 0
-561 105 0
-105 -195 561 0
-579 195 0
-579 105 111 0
-105 -195 579 0
-111 -195 579 0
-597 195 0
-597 105 111 117 0
-105 -195 597 0
-111 -195 597 0
-117 -195 597 0
-615 195 0
-615 111 117 123 0
-111 -195 615 0
-117 -195 615 0
-123 -195 615 0
-633 195 0
-633 117 123 0
-117 -195 633 0
-123 -195 633 0
-651 195 0
-651 123 0
-123 -195 651 0
-226 130 0
-226 4 0
-4 -130 226 0
-244 130 0
-244 10 0
-10 -130 244 0
-262 130 0
-262 16 0
-16 -130 262 0
-280 130 0
-280 22 0
-22 -130 280 0
-298 130 0
-298 28 0
-28 -130 298 0
-316 130 0
-316 34 0
-34 -130 316 0
-232 136 0
-232 4 0
-4 -136 232 0
-250 136 0
-250 10 0
-10 -136 250 0
-268 136 0
-268 16 0
-16 -136 268 0
-286 136 0
-286 22 0
-22 -136 286 0
-304 136 0
-304 28 0
-28 -136 304 0
-322 136 0
-322 34 0
-34 -136 322 0
-238 142 0
-238 4 0
-4 -142 238 0
-256 142 0
-256 10 0
-10 -142 256 0
-274 142 0
-274 16 0
-16 -142 274 0
-292 142 0
-292 22 0
-22 -142 292 0
-310 142 0
-310 28 0
-28 -142 310 0
-328 142 0
-328 34 0
-34 -142 328 0
-334 148 0
-334 40 0
-40 -148 334 0
-352 148 0
-352 46 0
-46 -148 352 0
-370 148 0
-370 52 0
-52 -148 370 0
-388 148 0
-388 58 0
-58 -148 388 0
-406 148 0
-406 64 0
-64 -148 406 0
-424 148 0
-424 70 0
-70 -148 424 0
-340 154 0
-340 40 0
-40 -154 340 0
-358 154 0
-358 46 0
-46 -154 358 0
-376 154 0
-376 52 0
-52 -154 376 0
-394 154 0
-394 58 0
-58 -154 394 0
-412 154 0
-412 64 0
-64 -154 412 0
-430 154 0
-430 70 0
-70 -154 430 0
-346 160 0
-346 40 0
-40 -160 346 0
-364 160 0
-364 46 0
-46 -160 364 0
-382 160 0
-382 52 0
-52 -160 382 0
-400 160 0
-400 58 0
-58 -160 400 0
-418 160 0
-418 64 0
-64 -160 418 0
-436 160 0
-436 70 0
-70 -160 436 0
-442 166 0
-442 76 0
-76 -166 442 0
-460 166 0
-460 76 82 0
-76 -166 460 0
-82 -166 460 0
-478 166 0
-478 82 88 0
-82 -166 478 0
-88 -166 478 0
-496 166 0
-496 88 94 0
-88 -166 496 0
-94 -166 496 0
-514 166 0
-514 94 100 0
-94 -166 514 0
-100 -166 514 0
-532 166 0
-532 100 0
-100 -166 532 0
-448 172 0
-448 76 0
-76 -172 448 0
-466 172 0
-466 76 82 0
-76 -172 466 0
-82 -172 466 0
-484 172 0
-484 82 88 0
-82 -172 484 0
-88 -172 484 0
-502 172 0
-502 88 94 0
-88 -172 502 0
-94 -172 502 0
-520 172 0
-520 94 100 0
-94 -172 520 0
-100 -172 520 0
-538 172 0
-538 100 0
-100 -172 538 0
-454 178 0
-454 76 0
-76 -178 454 0
-472 178 0
-472 76 82 0
-76 -178 472 0
-82 -178 472 0
-490 178 0
-490 82 88 0
-82 -178 490 0
-88 -178 490 0
-508 178 0
-508 88 94 0
-88 -178 508 0
-94 -178 508 0
-526 178 0
-526 94 100 0
-94 -178 526 0
-100 -178 526 0
-544 178 0
-544 100 0
-100 -178 544 0
-550 184 0
-550 106 0
-106 -184 550 0
-568 184 0
-568 106 112 0
-106 -184 568 0
-112 -184 568 0
-586 184 0
-586 106 112 118 0
-106 -184 586 0
-112 -184 586 0
-118 -184 586 0
-604 184 0
-604 112 118 124 0
-112 -184 604 0
-118 -184 604 0
-124 -184 604 0
-622 184 0
-622 118 124 0
-118 -184 622 0
-124 -184 622 0
-640 184 0
-640 124 0
-124 -184 640 0
-556 190 0
-556 106 0
-106 -190 556 0
-574 190 0
-574 106 112 0
-106 -190 574 0
-112 -190 574 0
-592 190 0
-592 106 112 118 0
-106 -190 592 0
-112 -190 592 0
-118 -190 592 0
-610 190 0
-610 112 118 124 0
-112 -190 610 0
-118 -190 610 0
-124 -190 610 0
-628 190 0
-628 118 124 0
-118 -190 628 0
-124 -190 628 0
-646 190 0
-646 124 0
-124 -190 646 0
-562 196 0
-562 106 0
-106 -196 562 0
-580 196 0
-580 106 112 0
-106 -196 580 0
-112 -196 580 0
-598 196 0
-598 106 112 118 0
-106 -196 598 0
-112 -196 598 0
-118 -196 598 0
-616 196 0
-616 112 118 124 0
-112 -196 616 0
-118 -196 616 0
-124 -196 616 0
-634 196 0
-634 118 124 0
-118 -196 634 0
-124 -196 634 0
-652 196 0
-652 124 0
-124 -196 652 0
-227 131 0
-227 5 0
-5 -131 227 0
-245 131 0
-245 11 0
-11 -131 245 0
-263 131 0
-263 17 0
-17 -131 263 0
-281 131 0
-281 23 0
-23 -131 281 0
-299 131 0
-299 29 0
-29 -131 299 0
-317 131 0
-317 35 0
-35 -131 317 0
-233 137 0
-233 5 0
-5 -137 233 0
-251 137 0
-251 11 0
-11 -137 251 0
-269 137 0
-269 17 0
-17 -137 269 0
-287 137 0
-287 23 0
-23 -137 287 0
-305 137 0
-305 29 0
-29 -137 305 0
-323 137 0
-323 35 0
-35 -137 323 0
-239 143 0
-239 5 0
-5 -143 239 0
-257 143 0
-257 11 0
-11 -143 257 0
-275 143 0
-275 17 0
-17 -143 275 0
-293 143 0
-293 23 0
-23 -143 293 0
-311 143 0
-311 29 0
-29 -143 311 0
-329 143 0
-329 35 0
-35 -143 329 0
-335 149 0
-335 41 0
-41 -149 335 0
-353 149 0
-353 47 0
-47 -149 353 0
-371 149 0
-371 53 0
-53 -149 371 0
-389 149 0
-389 59 0
-59 -149 389 0
-407 149 0
-407 65 0
-65 -149 407 0
-425 149 0
-425 71 0
-71 -149 425 0
-341 155 0
-341 41 0
-41 -155 341 0
-359 155 0
-359 47 0
-47 -155 359 0
-377 155 0
-377 53 0
-53 -155 377 0
-395 155 0
-395 59 0
-59 -155 395 0
-413 155 0
-413 65 0
-65 -155 413 0
-431 155 0
-431 71 0
-71 -155 431 0
-347 161 0
-347 41 0
-41 -161 347 0
-365 161 0
-365 47 0
-47 -161 365 0
-383 161 0
-383 53 0
-53 -161 383 0
-401 161 0
-401 59 0
-59 -161 401 0
-419 161 0
-419 65 0
-65 -161 419 0
-437 161 0
-437 71 0
-71 -161 437 0
-443 167 0
-443 77 0
-77 -167 443 0
-461 167 0
-461 77 83 0
-77 -167 461 0
-83 -167 461 0
-479 167 0
-479 83 89 0
-83 -167 479 0
-89 -167 479 0
-497 167 0
-497 89 95 0
-89 -167 497 0
-95 -167 497 0
-515 167 0
-515 95 101 0
-95 -167 515 0
-101 -167 515 0
-533 167 0
-533 101 0
-101 -167 533 0
-449 173 0
-449 77 0
-77 -173 449 0
-467 173 0
-467 77 83 0
-77 -173 467 0
-83 -173 467 0
-485 173 0
-485 83 89 0
-83 -173 485 0
-89 -173 485 0
-503 173 0
-503 89 95 0
-89 -173 503 0
-95 -173 503 0
-521 173 0
-521 95 101 0
-95 -173 521 0
-101 -173 521 0
-539 173 0
-539 101 0
-101 -173 539 0
-455 179 0
-455 77 0
-77 -179 455 0
-473 179 0
-473 77 83 0
-77 -179 473 0
-83 -179 473 0
-491 179 0
-491 83 89 0
-83 -179 491 0
-89 -179 491 0
-509 179 0
-509 89 95 0
-89 -179 509 0
-95 -179 509 0
-527 179 0
-527 95 101 0
-95 -179 527 0
-101 -179 527 0
-545 179 0
-545 101 0
-101 -179 545 0
-551 185 0
-551 107 0
-107 -185 551 0
-569 185 0
-569 107 113 0
-107 -185 569 0
-113 -185 569 0
-587 185 0
-587 107 113 119 0
-107 -185 587 0
-113 -185 587 0
-119 -185 587 0
-605 185 0
-605 113 119 125 0
-113 -185 605 0
-119 -185 605 0
-125 -185 605 0
-623 185 0
-623 119 125 0
-119 -185 623 0
-125 -185 623 0
-641 185 0
-641 125 0
-125 -185 641 0
-557 191 0
-557 107 0
-107 -191 557 0
-575 191 0
-575 107 113 0
-107 -191 575 0
-113 -191 575 0
-593 191 0
-593 107 113 119 0
-107 -191 593 0
-113 -191 593 0
-119 -191 593 0
-611 191 0
-611 113 119 125 0
-113 -191 611 0
-119 -191 611 0
-125 -191 611 0
-629 191 0
-629 119 125 0
-119 -191 629 0
-125 -191 629 0
-647 191 0
-647 125 0
-125 -191 647 0
-563 197 0
-563 107 0
-107 -197 563 0
-581 197 0
-581 107 113 0
-107 -197 581 0
-113 -197 581 0
-599 197 0
-599 107 113 119 0
-107 -197 599 0
-113 -197 599 0
-119 -197 599 0
-617 197 0
-617 113 119 125 0
-113 -197 617 0
-119 -197 617 0
-125 -197 617 0
-635 197 0
-635 119 125 0
-119 -197 635 0
-125 -197 635 0
-653 197 0
-653 125 0
-125 -197 653 0
-228 132 0
-228 6 0
-6 -132 228 0
-246 132 0
-246 12 0
-12 -132 246 0
-264 132 0
-264 18 0
-18 -132 264 0
-282 132 0
-282 24 0
-24 -132 282 0
-300 132 0
-300 30 0
-30 -132 300 0
-318 132 0
-318 36 0
-36 -132 318 0
-234 138 0
-234 6 0
-6 -138 234 0
-252 138 0
-252 12 0
-12 -138 252 0
-270 138 0
-270 18 0
-18 -138 270 0
-288 138 0
-288 24 0
-24 -138 288 0
-306 138 0
-306 30 0
-30 -138 306 0
-324 138 0
-324 36 0
-36 -138 324 0
-240 144 0
-240 6 0
-6 -144 240 0
-258 144 0
-258 12 0
-12 -144 258 0
-276 144 0
-276 18 0
-18 -144 276 0
-294 144 0
-294 24 0
-24 -144 294 0
-312 144 0
-312 30 0
-30 -144 312 0
-330 144 0
-330 36 0
-36 -144 330 0
-336 150 0
-336 42 0
-42 -150 336 0
-354 150 0
-354 48 0
-48 -150 354 0
-372 150 0
-372 54 0
-54 -150 372 0
-390 150 0
-390 60 0
-60 -150 390 0
-408 150 0
-408 66 0
-66 -150 408 0
-426 150 0
-426 72 0
-72 -150 426 0
-342 156 0
-342 42 0
-42 -156 342 0
-360 156 0
-360 48 0
-48 -156 360 0
-378 156 0
-378 54 0
-54 -156 378 0
-396 156 0
-396 60 0
-60 -156 396 0
-414 156 0
-414 66 0
-66 -156 414 0
-432 156 0
-432 72 0
-72 -156 432 0
-348 162 0
-348 42 0
-42 -162 348 0
-366 162 0
-366 48 0
-48 -162 366 0
-384 162 0
-384 54 0
-54 -162 384 0
-402 162 0
-402 60 0
-60 -162 402 0
-420 162 0
-420 66 0
-66 -162 420 0
-438 162 0
-438 72 0
-72 -162 438 0
-444 168 0
-444 78 0
-78 -168 444 0
-462 168 0
-462 78 84 0
-78 -168 462 0
-84 -168 462 0
-480 168 0
-480 84 90 0
-84 -168 480 0
-90 -168 480 0
-498 168 0
-498 90 96 0
-90 -168 498 0
-96 -168 498 0
-516 168 0
-516 96 102 0
-96 -168 516 0
-102 -168 516 0
-534 168 0
-534 102 0
-102 -168 534 0
-450 174 0
-450 78 0
-78 -174 450 0
-468 174 0
-468 78 84 0
-78 -174 468 0
-84 -174 468 0
-486 174 0
-486 84 90 0
-84 -174 486 0
-90 -174 486 0
-504 174 0
-504 90 96 0
-90 -174 504 0
-96 -174 504 0
-522 174 0
-522 96 102 0
-96 -174 522 0
-102 -174 522 0
-540 174 0
-540 102 0
-102 -174 540 0
-456 180 0
-456 78 0
-78 -180 456 0
-474 180 0
-474 78 84 0
-78 -180 474 0
-84 -180 474 0
-492 180 0
-492 84 90 0
-84 -180 492 0
-90 -180 492 0
-510 180 0
-510 90 96 0
-90 -180 510 0
-96 -180 510 0
-528 180 0
-528 96 102 0
-96 -180 528 0
-102 -180 528 0
-546 180 0
-546 102 0
-102 -180 546 0
-552 186 0
-552 108 0
-108 -186 552 0
-570 186 0
-570 108 114 0
-108 -186 570 0
-114 -186 570 0
-588 186 0
-588 108 114 120 0
-108 -186 588 0
-114 -186 588 0
-120 -186 588 0
-606 186 0
-606 114 120 126 0
-114 -186 606 0
-120 -186 606 0
-126 -186 606 0
-624 186 0
-624 120 126 0
-120 -186 624 0
-126 -186 624 0
-642 186 0
-642 126 0
-126 -186 642 0
-558 192 0
-558 108 0
-108 -192 558 0
-576 192 0
-576 108 114 0
-108 -192 576 0
-114 -192 576 0
-594 192 0
-594 108 114 120 0
-108 -192 594 0
-114 -192 594 0
-120 -192 594 0
-612 192 0
-612 114 120 126 0
-114 -192 612 0
-120 -192 612 0
-126 -192 612 0
-630 192 0
-630 120 126 0
-120 -192 630 0
-126 -192 630 0
-648 192 0
-648 126 0
-126 -192 648 0
-564 198 0
-564 108 0
-108 -198 564 0
-582 198 0
-582 108 114 0
-108 -198 582 0
-114 -198 582 0
-600 198 0
-600 108 114 120 0
-108 -198 600 0
-114 -198 600 0
-120 -198 600 0
-618 198 0
-618 114 120 126 0
-114 -198 618 0
-120 -198 618 0
-126 -198 618 0
-636 198 0
-636 120 126 0
-120 -198 636 0
-126 -198 636 0
-654 198 0
-654 126 0
-126 -198 654 0
-1 -127 -37 -145 0
-1 -133 -37 -151 0
-1 -139 -37 -157 0
-7 -127 -43 -145 0
-7 -133 -43 -151 0
-7 -139 -43 -157 0
-13 -127 -49 -145 0
-13 -133 -49 -151 0
-13 -139 -49 -157 0
-19 -127 -55 -145 0
-19 -133 -55 -151 0
-19 -139 -55 -157 0
-25 -127 -61 -145 0
-25 -133 -61 -151 0
-25 -139 -61 -157 0
-31 -127 -67 -145 0
-31 -133 -67 -151 0
-31 -139 -67 -157 0
-1 -127 -73 -163 0
-1 -133 -73 -169 0
-1 -139 -73 -175 0
-7 -127 -73 -163 0
-7 -133 -73 -169 0
-7 -139 -73 -175 0
-7 -127 -79 -163 0
-7 -133 -79 -169 0
-7 -139 -79 -175 0
-13 -127 -79 -163 0
-13 -133 -79 -169 0
-13 -139 -79 -175 0
-13 -127 -85 -163 0
-13 -133 -85 -169 0
-13 -139 -85 -175 0
-19 -127 -85 -163 0
-19 -133 -85 -169 0
-19 -139 -85 -175 0
-19 -127 -91 -163 0
-19 -133 -91 -169 0
-19 -139 -91 -175 0
-25 -127 -91 -163 0
-25 -133 -91 -169 0
-25 -139 -91 -175 0
-25 -127 -97 -163 0
-25 -133 -97 -169 0
-25 -139 -97 -175 0
-31 -127 -97 -163 0
-31 -133 -97 -169 0
-31 -139 -97 -175 0
-1 -127 -103 -181 0
-1 -133 -103 -187 0
-1 -139 -103 -193 0
-7 -127 -103 -181 0
-7 -133 -103 -187 0
-7 -139 -103 -193 0
-7 -127 -109 -181 0
-7 -133 -109 -187 0
-7 -139 -109 -193 0
-13 -127 -103 -181 0
-13 -133 -103 -187 0
-13 -139 -103 -193 0
-13 -127 -109 -181 0
-13 -133 -109 -187 0
-13 -139 -109 -193 0
-13 -127 -115 -181 0
-13 -133 -115 -187 0
-13 -139 -115 -193 0
-19 -127 -109 -181 0
-19 -133 -109 -187 0
-19 -139 -109 -193 0
-19 -127 -115 -181 0
-19 -133 -115 -187 0
-19 -139 -115 -193 0
-19 -127 -121 -181 0
-19 -133 -121 -187 0
-19 -139 -121 -193 0
-25 -127 -115 -181 0
-25 -133 -115 -187 0
-25 -139 -115 -193 0
-25 -127 -121 -181 0
-25 -133 -121 -187 0
-25 -139 -121 -193 0
-31 -127 -121 -181 0
-31 -133 -121 -187 0
-31 -139 -121 -193 0
-37 -145 -73 -163 0
-37 -151 -73 -169 0
-37 -157 -73 -175 0
-43 -145 -73 -163 0
-43 -151 -73 -169 0
-43 -157 -73 -175 0
-43 -145 -79 -163 0
-43 -151 -79 -169 0
-43 -157 -79 -175 0
-49 -145 -79 -163 0
-49 -151 -79 -169 0
-49 -157 -79 -175 0
-49 -145 -85 -163 0
-49 -151 -85 -169 0
-49 -157 -85 -175 0
-55 -145 -85 -163 0
-55 -151 -85 -169 0
-55 -157 -85 -175 0
-55 -145 -91 -163 0
-55 -151 -91 -169 0
-55 -157 -91 -175 0
-61 -145 -91 -163 0
-61 -151 -91 -169 0
-61 -157 -91 -175 0
-61 -145 -97 -163 0
-61 -151 -97 -169 0
-61 -157 -97 -175 0
-67 -145 -97 -163 0
-67 -151 -97 -169 0
-67 -157 -97 -175 0
-37 -145 -103 -181 0
-37 -151 -103 -187 0
-37 -157 -103 -193 0
-43 -145 -103 -181 0
-43 -151 -103 -187 0
-43 -157 -103 -193 0
-43 -145 -109 -181 0
-43 -151 -109 -187 0
-43 -157 -109 -193 0
-49 -145 -103 -181 0
-49 -151 -103 -187 0
-49 -157 -103 -193 0
-49 -145 -109 -181 0
-49 -151 -109 -187 0
-49 -157 -109 -193 0
-49 -145 -115 -181 0
-49 -151 -115 -187 0
-49 -157 -115 -193 0
-55 -145 -109 -181 0
-55 -151 -109 -187 0
-55 -157 -109 -193 0
-55 -145 -115 -181 0
-55 -151 -115 -187 0
-55 -157 -115 -193 0
-55 -145 -121 -181 0
-55 -151 -121 -187 0
-55 -157 -121 -193 0
-61 -145 -115 -181 0
-61 -151 -115 -187 0
-61 -157 -115 -193 0
-61 -145 -121 -181 0
-61 -151 -121 -187 0
-61 -157 -121 -193 0
-67 -145 -121 -181 0
-67 -151 -121 -187 0
-67 -157 -121 -193 0
-73 -163 -103 -181 0
-73 -169 -103 -187 0
-73 -175 -103 -193 0
-73 -163 -109 -181 0
-73 -169 -109 -187 0
-73 -175 -109 -193 0
-79 -163 -103 -181 0
-79 -169 -103 -187 0
-79 -175 -103 -193 0
-79 -163 -109 -181 0
-79 -169 -109 -187 0
-79 -175 -109 -193 0
-79 -163 -115 -181 0
-79 -169 -115 -187 0
-79 -175 -115 -193 0
-85 -163 -103 -181 0
-85 -169 -103 -187 0
-85 -175 -103 -193 0
-85 -163 -109 -181 0
-85 -169 -109 -187 0
-85 -175 -109 -193 0
-85 -163 -115 -181 0
-85 -169 -115 -187 0
-85 -175 -115 -193 0
-85 -163 -121 -181 0
-85 -169 -121 -187 0
-85 -175 -121 -193 0
-91 -163 -109 -181 0
-91 -169 -109 -187 0
-91 -175 -109 -193 0
-91 -163 -115 -181 0
-91 -169 -115 -187 0
-91 -175 -115 -193 0
-91 -163 -121 -181 0
-91 -169 -121 -187 0
-91 -175 -121 -193 0
-97 -163 -115 -181 0
-97 -169 -115 -187 0
-97 -175 -115 -193 0
-97 -163 -121 -181 0
-97 -169 -121 -187 0
-97 -175 -121 -193 0
-2 -128 -38 -146 0
-2 -134 -38 -152 0
-2 -140 -38 -158 0
-8 -128 -44 -146 0
-8 -134 -44 -152 0
-8 -140 -44 -158 0
-14 -128 -50 -146 0
-14 -134 -50 -152 0
-14 -140 -50 -158 0
-20 -128 -56 -146 0
-20 -134 -56 -152 0
-20 -140 -56 -158 0
-26 -128 -62 -146 0
-26 -134 -62 -152 0
-26 -140 -62 -158 0
-32 -128 -68 -146 0
-32 -134 -68 -152 0
-32 -140 -68 -158 0
-2 -128 -74 -164 0
-2 -134 -74 -170 0
-2 -140 -74 -176 0
-8 -128 -74 -164 0
-8 -134 -74 -170 0
-8 -140 -74 -176 0
-8 -128 -80 -164 0
-8 -134 -80 -170 0
-8 -140 -80 -176 0
-14 -128 -80 -164 0
-14 -134 -80 -170 0
-14 -140 -80 -176 0
-14 -128 -86 -164 0
-14 -134 -86 -170 0
-14 -140 -86 -176 0
-20 -128 -86 -164 0
-20 -134 -86 -170 0
-20 -140 -86 -176 0
-20 -128 -92 -164 0
-20 -134 -92 -170 0
-20 -140 -92 -176 0
-26 -128 -92 -164 0
-26 -134 -92 -170 0
-26 -140 -92 -176 0
-26 -128 -98 -164 0
-26 -134 -98 -170 0
-26 -140 -98 -176 0
-32 -128 -98 -164 0
-32 -134 -98 -170 0
-32 -140 -98 -176 0
-2 -128 -104 -182 0
-2 -134 -104 -188 0
-2 -140 -104 -194 0
-8 -128 -104 -182 0
-8 -134 -104 -188 0
-8 -140 -104 -194 0
-8 -128 -110 -182 0
-8 -134 -110 -188 0
-8 -140 -110 -194 0
-14 -128 -104 -182 0
-14 -134 -104 -188 0
-14 -140 -104 -194 0
-14 -128 -110 -182 0
-14 -134 -110 -188 0
-14 -140 -110 -194 0
-14 -128 -116 -182 0
-14 -134 -116 -188 0
-14 -140 -116 -194 0
-20 -128 -110 -182 0
-20 -134 -110 -188 0
-20 -140 -110 -194 0
-20 -128 -116 -182 0
-20 -134 -116 -188 0
-20 -140 -116 -194 0
-20 -128 -122 -182 0
-20 -134 -122 -188 0
-20 -140 -122 -194 0
-26 -128 -116 -182 0
-26 -134 -116 -188 0
-26 -140 -116 -194 0
-26 -128 -122 -182 0
-26 -134 -122 -188 0
-26 -140 -122 -194 0
-32 -128 -122 -182 0
-32 -134 -122 -188 0
-32 -140 -122 -194 0
-38 -146 -74 -164 0
-38 -152 -74 -170 0
-38 -158 -74 -176 0
-44 -146 -74 -164 0
-44 -152 -74 -170 0
-44 -158 -74 -176 0
-44 -146 -80 -164 0
-44 -152 -80 -170 0
-44 -158 -80 -176 0
-50 -146 -80 -164 0
-50 -152 -80 -170 0
-50 -158 -80 -176 0
-50 -146 -86 -164 0
-50 -152 -86 -170 0
-50 -158 -86 -176 0
-56 -146 -86 -164 0
-56 -152 -86 -170 0
-56 -158 -86 -176 0
-56 -146 -92 -164 0
-56 -152 -92 -170 0
-56 -158 -92 -176 0
-62 -146 -92 -164 0
-62 -152 -92 -170 0
-62 -158 -92 -176 0
-62 -146 -98 -164 0
-62 -152 -98 -170 0
-62 -158 -98 -176 0
-68 -146 -98 -164 0
-68 -152 -98 -170 0
-68 -158 -98 -176 0
-38 -146 -104 -182 0
-38 -152 -104 -188 0
-38 -158 -104 -194 0
-44 -146 -104 -182 0
-44 -152 -104 -188 0
-44 -158 -104 -194 0
-44 -146 -110 -182 0
-44 -152 -110 -188 0
-44 -158 -110 -194 0
-50 -146 -104 -182 0
-50 -152 -104 -188 0
-50 -158 -104 -194 0
-50 -146 -110 -182 0
-50 -152 -110 -188 0
-50 -158 -110 -194 0
-50 -146 -116 -182 0
-50 -152 -116 -188 0
-50 -158 -116 -194 0
-56 -146 -110 -182 0
-56 -152 -110 -188 0
-56 -158 -110 -194 0
-56 -146 -116 -182 0
-56 -152 -116 -188 0
-56 -158 -116 -194 0
-56 -146 -122 -182 0
-56 -152 -122 -188 0
-56 -158 -122 -194 0
-62 -146 -116 -182 0
-62 -152 -116 -188 0
-62 -158 -116 -194 0
-62 -146 -122 -182 0
-62 -152 -122 -188 0
-62 -158 -122 -194 0
-68 -146 -122 -182 0
-68 -152 -122 -188 0
-68 -158 -122 -194 0
-74 -164 -104 -182 0
-74 -170 -104 -188 0
-74 -176 -104 -194 0
-74 -164 -110 -182 0
-74 -170 -110 -188 0
-74 -176 -110 -194 0
-80 -164 -104 -182 0
-80 -170 -104 -188 0
-80 -176 -104 -194 0
-80 -164 -110 -182 0
-80 -170 -110 -188 0
-80 -176 -110 -194 0
-80 -164 -116 -182 0
-80 -170 -116 -188 0
-80 -176 -116 -194 0
-86 -164 -104 -182 0
-86 -170 -104 -188 0
-86 -176 -104 -194 0
-86 -164 -110 -182 0
-86 -170 -110 -188 0
-86 -176 -110 -194 0
-86 -164 -116 -182 0
-86 -170 -116 -188 0
-86 -176 -116 -194 0
-86 -164 -122 -182 0
-86 -170 -122 -188 0
-86 -176 -122 -194 0
-92 -164 -110 -182 0
-92 -170 -110 -188 0
-92 -176 -110 -194 0
-92 -164 -116 -182 0
-92 -170 -116 -188 0
-92 -176 -116 -194 0
-92 -164 -122 -182 0
-92 -170 -122 -188 0
-92 -176 -122 -194 0
-98 -164 -116 -182 0
-98 -170 -116 -188 0
-98 -176 -116 -194 0
-98 -164 -122 -182 0
-98 -170 -122 -188 0
-98 -176 -122 -194 0
-3 -129 -39 -147 0
-3 -135 -39 -153 0
-3 -141 -39 -159 0
-9 -129 -45 -147 0
-9 -135 -45 -153 0
-9 -141 -45 -159 0
-15 -129 -51 -147 0
-15 -135 -51 -153 0
-15 -141 -51 -159 0
-21 -129 -57 -147 0
-21 -135 -57 -153 0
-21 -141 -57 -159 0
-27 -129 -63 -147 0
-27 -135 -63 -153 0
-27 -141 -63 -159 0
-33 -129 -69 -147 0
-33 -135 -69 -153 0
-33 -141 -69 -159 0
-3 -129 -75 -165 0
-3 -135 -75 -171 0
-3 -141 -75 -177 0
-9 -129 -75 -165 0
-9 -135 -75 -171 0
-9 -141 -75 -177 0
-9 -129 -81 -165 0
-9 -135 -81 -171 0
-9 -141 -81 -177 0
-15 -129 -81 -165 0
-15 -135 -81 -171 0
-15 -141 -81 -177 0
-15 -129 -87 -165 0
-15 -135 -87 -171 0
-15 -141 -87 -177 0
-21 -129 -87 -165 0
-21 -135 -87 -171 0
-21 -141 -87 -177 0
-21 -129 -93 -165 0
-21 -135 -93 -171 0
-21 -141 -93 -177 0
-27 -129 -93 -165 0
-27 -135 -93 -171 0
-27 -141 -93 -177 0
-27 -129 -99 -165 0
-27 -135 -99 -171 0
-27 -141 -99 -177 0
-33 -129 -99 -165 0
-33 -135 -99 -171 0
-33 -141 -99 -177 0
-3 -129 -105 -183 0
-3 -135 -105 -189 0
-3 -141 -105 -195 0
-9 -129 -105 -183 0
-9 -135 -105 -189 0
-9 -141 -105 -195 0
-9 -129 -111 -183 0
-9 -135 -111 -189 0
-9 -141 -111 -195 0
-15 -129 -105 -183 0
-15 -135 -105 -189 0
-15 -141 -105 -195 0
-15 -129 -111 -183 0
-15 -135 -111 -189 0
-15 -141 -111 -195 0
-15 -129 -117 -183 0
-15 -135 -117 -189 0
-15 -141 -117 -195 0
-21 -129 -111 -183 0
-21 -135 -111 -189 0
-21 -141 -111 -195 0
-21 -129 -117 -183 0
-21 -135 -117 -189 0
-21 -141 -117 -195 0
-21 -129 -123 -183 0
-21 -135 -123 -189 0
-21 -141 -123 -195 0
-27 -129 -117 -183 0
-27 -135 -117 -189 0
-27 -141 -117 -195 0
-27 -129 -123 -183 0
-27 -135 -123 -189 0
-27 -141 -123 -195 0
-33 -129 -123 -183 0
-33 -135 -123 -189 0
-33 -141 -123 -195 0
-39 -147 -75 -165 0
-39 -153 -75 -171 0
-39 -159 -75 -177 0
-45 -147 -75 -165 0
-45 -153 -75 -171 0
-45 -159 -75 -177 0
-45 -147 -81 -165 0
-45 -153 -81 -171 0
-45 -159 -81 -177 0
-51 -147 -81 -165 0
-51 -153 -81 -171 0
-51 -159 -81 -177 0
-51 -147 -87 -165 0
-51 -153 -87 -171 0
-51 -159 -87 -177 0
-57 -147 -87 -165 0
-57 -153 -87 -171 0
-57 -159 -87 -177 0
-57 -147 -93 -165 0
-57 -153 -93 -171 0
-57 -159 -93 -177 0
-63 -147 -93 -165 0
-63 -153 -93 -171 0
-63 -159 -93 -177 0
-63 -147 -99 -165 0
-63 -153 -99 -171 0
-63 -159 -99 -177 0
-69 -147 -99 -165 0
-69 -153 -99 -171 0
-69 -159 -99 -177 0
-39 -147 -105 -183 0
-39 -153 -105 -189 0
-39 -159 -105 -195 0
-45 -147 -105 -183 0
-45 -153 -105 -189 0
-45 -159 -105 -195 0
-45 -147 -111 -183 0
-45 -153 -111 -189 0
-45 -159 -111 -195 0
-51 -147 -105 -183 0
-51 -153 -105 -189 0
-51 -159 -105 -195 0
-51 -147 -111 -183 0
-51 -153 -111 -189 0
-51 -159 -111 -195 0
-51 -147 -117 -183 0
-51 -153 -117 -189 0
-51 -159 -117 -195 0
-57 -147 -111 -183 0
-57 -153 -111 -189 0
-57 -159 -111 -195 0
-57 -147 -117 -183 0
-57 -153 -117 -189 0
-57 -159 -117 -195 0
-57 -147 -123 -183 0
-57 -153 -123 -189 0
-57 -159 -123 -195 0
-63 -147 -117 -183 0
-63 -153 -117 -189 0
-63 -159 -117 -195 0
-63 -147 -123 -183 0
-63 -153 -123 -189 0
-63 -159 -123 -195 0
-69 -147 -123 -183 0
-69 -153 -123 -189 0
-69 -159 -123 -195 0
-75 -165 -105 -183 0
-75 -171 -105 -189 0
-75 -177 -105 -195 0
-75 -165 -111 -183 0
-75 -171 -111 -189 0
-75 -177 -111 -195 0
-81 -165 -105 -183 0
-81 -171 -105 -189 0
-81 -177 -105 -195 0
-81 -165 -111 -183 0
-81 -171 -111 -189 0
-81 -177 -111 -195 0
-81 -165 -117 -183 0
-81 -171 -117 -189 0
-81 -177 -117 -195 0
-87 -165 -105 -183 0
-87 -171 -105 -189 0
-87 -177 -105 -195 0
-87 -165 -111 -183 0
-87 -171 -111 -189 0
-87 -177 -111 -195 0
-87 -165 -117 -183 0
-87 -171 -117 -189 0
-87 -177 -117 -195 0
-87 -165 -123 -183 0
-87 -171 -123 -189 0
-87 -177 -123 -195 0
-93 -165 -111 -183 0
-93 -171 -111 -189 0
-93 -177 -111 -195 0
-93 -165 -117 -183 0
-93 -171 -117 -189 0
-93 -177 -117 -195 0
-93 -165 -123 -183 0
-93 -171 -123 -189 0
-93 -177 -123 -195 0
-99 -165 -117 -183 0
-99 -171 -117 -189 0
-99 -177 -117 -195 0
-99 -165 -123 -183 0
-99 -171 -123 -189 0
-99 -177 -123 -195 0
-4 -130 -40 -148 0
-4 -136 -40 -154 0
-4 -142 -40 -160 0
-10 -130 -46 -148 0
-10 -136 -46 -154 0
-10 -142 -46 -160 0
-16 -130 -52 -148 0
-16 -136 -52 -154 0
-16 -142 -52 -160 0
-22 -130 -58 -148 0
-22 -136 -58 -154 0
-22 -142 -58 -160 0
-28 -130 -64 -148 0
-28 -136 -64 -154 0
-28 -142 -64 -160 0
-34 -130 -70 -148 0
-34 -136 -70 -154 0
-34 -142 -70 -160 0
-4 -130 -76 -166 0
-4 -136 -76 -172 0
-4 -142 -76 -178 0
-10 -130 -76 -166 0
-10 -136 -76 -172 0
-10 -142 -76 -178 0
-10 -130 -82 -166 0
-10 -136 -82 -172 0
-10 -142 -82 -178 0
-16 -130 -82 -166 0
-16 -136 -82 -172 0
-16 -142 -82 -178 0
-16 -130 -88 -166 0
-16 -136 -88 -172 0
-16 -142 -88 -178 0
-22 -130 -88 -166 0
-22 -136 -88 -172 0
-22 -142 -88 -178 0
-22 -130 -94 -166 0
-22 -136 -94 -172 0
-22 -142 -94 -178 0
-28 -130 -94 -166 0
-28 -136 -94 -172 0
-28 -142 -94 -178 0
-28 -130 -100 -166 0
-28 -136 -100 -172 0
-28 -142 -100 -178 0
-34 -130 -100 -166 0
-34 -136 -100 -172 0
-34 -142 -100 -178 0
-4 -130 -106 -184 0
-4 -136 -106 -190 0
-4 -142 -106 -196 0
-10 -130 -106 -184 0
-10 -136 -106 -190 0
-10 -142 -106 -196 0
-10 -130 -112 -184 0
-10 -136 -112 -190 0
-10 -142 -112 -196 0
-16 -130 -106 -184 0
-16 -136 -106 -190 0
-16 -142 -106 -196 0
-16 -130 -112 -184 0
-16 -136 -112 -190 0
-16 -142 -112 -196 0
-16 -130 -118 -184 0
-16 -136 -118 -190 0
-16 -142 -118 -196 0
-22 -130 -112 -184 0
-22 -136 -112 -190 0
-22 -142 -112 -196 0
-22 -130 -118 -184 0
-22 -136 -118 -190 0
-22 -142 -118 -196 0
-22 -130 -124 -184 0
-22 -136 -124 -190 0
-22 -142 -124 -196 0
-28 -130 -118 -184 0
-28 -136 -118 -190 0
-28 -142 -118 -196 0
-28 -130 -124 -184 0
-28 -136 -124 -190 0
-28 -142 -124 -196 0
-34 -130 -124 -184 0
-34 -136 -124 -190 0
-34 -142 -124 -196 0
-40 -148 -76 -166 0
-40 -154 -76 -172 0
-40 -160 -76 -178 0
-46 -148 -76 -166 0
-46 -154 -76 -172 0
-46 -160 -76 -178 0
-46 -148 -82 -166 0
-46 -154 -82 -172 0
-46 -160 -82 -178 0
-52 -148 -82 -166 0
-52 -154 -82 -172 0
-52 -160 -82 -178 0
-52 -148 -88 -166 0
-52 -154 -88 -172 0
-52 -160 -88 -178 0
-58 -148 -88 -166 0
-58 -154 -88 -172 0
-58 -160 -88 -178 0
-58 -148 -94 -166 0
-58 -154 -94 -172 0
-58 -160 -94 -178 0
-64 -148 -94 -166 0
-64 -154 -94 -172 0
-64 -160 -94 -178 0
-64 -148 -100 -166 0
-64 -154 -100 -172 0
-64 -160 -100 -178 0
-70 -148 -100 -166 0
-70 -154 -100 -172 0
-70 -160 -100 -178 0
-40 -148 -106 -184 0
-40 -154 -106 -190 0
-40 -160 -106 -196 0
-46 -148 -106 -184 0
-46 -154 -106 -190 0
-46 -160 -106 -196 0
-46 -148 -112 -184 0
-46 -154 -112 -190 0
-46 -160 -112 -196 0
-52 -148 -106 -184 0
-52 -154 -106 -190 0
-52 -160 -106 -196 0
-52 -148 -112 -184 0
-52 -154 -112 -190 0
-52 -160 -112 -196 0
-52 -148 -118 -184 0
-52 -154 -118 -190 0
-52 -160 -118 -196 0
-58 -148 -112 -184 0
-58 -154 -112 -190 0
-58 -160 -112 -196 0
-58 -148 -118 -184 0
-58 -154 -118 -190 0
-58 -160 -118 -196 0
-58 -148 -124 -184 0
-58 -154 -124 -190 0
-58 -160 -124 -196 0
-64 -148 -118 -184 0
-64 -154 -118 -190 0
-64 -160 -118 -196 0
-64 -148 -124 -184 0
-64 -154 -124 -190 0
-64 -160 -124 -196 0
-70 -148 -124 -184 0
-70 -154 -124 -190 0
-70 -160 -124 -196 0
-76 -166 -106 -184 0
-76 -172 -106 -190 0
-76 -178 -106 -196 0
-76 -166 -112 -184 0
-76 -172 -112 -190 0
-76 -178 -112 -196 0
-82 -166 -106 -184 0
-82 -172 -106 -190 0
-82 -178 -106 -196 0
-82 -166 -112 -184 0
-82 -172 -112 -190 0
-82 -178 -112 -196 0
-82 -166 -118 -184 0
-82 -172 -118 -190 0
-82 -178 -118 -196 0
-88 -166 -106 -184 0
-88 -172 -106 -190 0
-88 -178 -106 -196 0
-88 -166 -112 -184 0
-88 -172 -112 -190 0
-88 -178 -112 -196 0
-88 -166 -118 -184 0
-88 -172 -118 -190 0
-88 -178 -118 -196 0
-88 -166 -124 -184 0
-88 -172 -124 -190 0
-88 -178 -124 -196 0
-94 -166 -112 -184 0
-94 -172 -112 -190 0
-94 -178 -112 -196 0
-94 -166 -118 -184 0
-94 -172 -118 -190 0
-94 -178 -118 -196 0
-94 -166 -124 -184 0
-94 -172 -124 -190 0
-94 -178 -124 -196 0
-100 -166 -118 -184 0
-100 -172 -118 -190 0
-100 -178 -118 -196 0
-100 -166 -124 -184 0
-100 -172 -124 -190 0
-100 -178 -124 -196 0
-5 -131 -41 -149 0
-5 -137 -41 -155 0
-5 -143 -41 -161 0
-11 -131 -47 -149 0
-11 -137 -47 -155 0
-11 -143 -47 -161 0
-17 -131 -53 -149 0
-17 -137 -53 -155 0
-17 -143 -53 -161 0
-23 -131 -59 -149 0
-23 -137 -59 -155 0
-23 -143 -59 -161 0
-29 -131 -65 -149 0
-29 -137 -65 -155 0
-29 -143 -65 -161 0
-35 -131 -71 -149 0
-35 -137 -71 -155 0
-35 -143 -71 -161 0
-5 -131 -77 -167 0
-5 -137 -77 -173 0
-5 -143 -77 -179 0
-11 -131 -77 -167 0
-11 -137 -77 -173 0
-11 -143 -77 -179 0
-11 -131 -83 -167 0
-11 -137 -83 -173 0
-11 -143 -83 -179 0
-17 -131 -83 -167 0
-17 -137 -83 -173 0
-17 -143 -83 -179 0
-17 -131 -89 -167 0
-17 -137 -89 -173 0
-17 -143 -89 -179 0
-23 -131 -89 -167 0
-23 -137 -89 -173 0
-23 -143 -89 -179 0
-23 -131 -95 -167 0
-23 -137 -95 -173 0
-23 -143 -95 -179 0
-29 -131 -95 -167 0
-29 -137 -95 -173 0
-29 -143 -95 -179 0
-29 -131 -101 -167 0
-29 -137 -101 -173 0
-29 -143 -101 -179 0
-35 -131 -101 -167 0
-35 -137 -101 -173 0
-35 -143 -101 -179 0
-5 -131 -107 -185 0
-5 -137 -107 -191 0
-5 -143 -107 -197 0
-11 -131 -107 -185 0
-11 -137 -107 -191 0
-11 -143 -107 -197 0
-11 -131 -113 -185 0
-11 -137 -113 -191 0
-11 -143 -113 -197 0
-17 -131 -107 -185 0
-17 -137 -107 -191 0
-17 -143 -107 -197 0
-17 -131 -113 -185 0
-17 -137 -113 -191 0
-17 -143 -113 -197 0
-17 -131 -119 -185 0
-17 -137 -119 -191 0
-17 -143 -119 -197 0
-23 -131 -113 -185 0
-23 -137 -113 -191 0
-23 -143 -113 -197 0
-23 -131 -119 -185 0
-23 -137 -119 -191 0
-23 -143 -119 -197 0
-23 -131 -125 -185 0
-23 -137 -125 -191 0
-23 -143 -125 -197 0
-29 -131 -119 -185 0
-29 -137 -119 -191 0
-29 -143 -119 -197 0
-29 -131 -125 -185 0
-29 -137 -125 -191 0
-29 -143 -125 -197 0
-35 -131 -125 -185 0
-35 -137 -125 -191 0
-35 -143 -125 -197 0
-41 -149 -77 -167 0
-41 -155 -77 -173 0
-41 -161 -77 -179 0
-47 -149 -77 -167 0
-47 -155 -77 -173 0
-47 -161 -77 -179 0
-47 -149 -83 -167 0
-47 -155 -83 -173 0
-47 -161 -83 -179 0
-53 -149 -83 -167 0
-53 -155 -83 -173 0
-53 -161 -83 -179 0
-53 -149 -89 -167 0
-53 -155 -89 -173 0
-53 -161 -89 -179 0
-59 -149 -89 -167 0
-59 -155 -89 -173 0
-59 -161 -89 -179 0
-59 -149 -95 -167 0
-59 -155 -95 -173 0
-59 -161 -95 -179 0
-65 -149 -95 -167 0
-65 -155 -95 -173 0
-65 -161 -95 -179 0
-65 -149 -101 -167 0
-65 -155 -101 -173 0
-65 -161 -101 -179 0
-71 -149 -101 -167 0
-71 -155 -101 -173 0
-71 -161 -101 -179 0
-41 -149 -107 -185 0
-41 -155 -107 -191 0
-41 -161 -107 -197 0
-47 -149 -107 -185 0
-47 -155 -107 -191 0
-47 -161 -107 -197 0
-47 -149 -113 -185 0
-47 -155 -113 -191 0
-47 -161 -113 -197 0
-53 -149 -107 -185 0
-53 -155 -107 -191 0
-53 -161 -107 -197 0
-53 -149 -113 -185 0
-53 -155 -113 -191 0
-53 -161 -113 -197 0
-53 -149 -119 -185 0
-53 -155 -119 -191 0
-53 -161 -119 -197 0
-59 -149 -113 -185 0
-59 -155 -113 -191 0
-59 -161 -113 -197 0
-59 -149 -119 -185 0
-59 -155 -119 -191 0
-59 -161 -119 -197 0
-59 -149 -125 -185 0
-59 -155 -125 -191 0
-59 -161 -125 -197 0
-65 -149 -119 -185 0
-65 -155 -119 -191 0
-65 -161 -119 -197 0
-65 -149 -125 -185 0
-65 -155 -125 -191 0
-65 -161 -125 -197 0
-71 -149 -125 -185 0
-71 -155 -125 -191 0
-71 -161 -125 -197 0
-77 -167 -107 -185 0
-77 -173 -107 -191 0
-77 -179 -107 -197 0
-77 -167 -113 -185 0
-77 -173 -113 -191 0
-77 -179 -113 -197 0
-83 -167 -107 -185 0
-83 -173 -107 -191 0
-83 -179 -107 -197 0
-83 -167 -113 -185 0
-83 -173 -113 -191 0
-83 -179 -113 -197 0
-83 -167 -119 -185 0
-83 -173 -119 -191 0
-83 -179 -119 -197 0
-89 -167 -107 -185 0
-89 -173 -107 -191 0
-89 -179 -107 -197 0
-89 -167 -113 -185 0
-89 -173 -113 -191 0
-89 -179 -113 -197 0
-89 -167 -119 -185 0
-89 -173 -119 -191 0
-89 -179 -119 -197 0
-89 -167 -125 -185 0
-89 -173 -125 -191 0
-89 -179 -125 -197 0
-95 -167 -113 -185 0
-95 -173 -113 -191 0
-95 -179 -113 -197 0
-95 -167 -119 -185 0
-95 -173 -119 -191 0
-95 -179 -119 -197 0
-95 -167 -125 -185 0
-95 -173 -125 -191 0
-95 -179 -125 -197 0
-101 -167 -119 -185 0
-101 -173 -119 -191 0
-101 -179 -119 -197 0
-101 -167 -125 -185 0
-101 -173 -125 -191 0
-101 -179 -125 -197 0
-6 -132 -42 -150 0
-6 -138 -42 -156 0
-6 -144 -42 -162 0
-12 -132 -48 -150 0
-12 -138 -48 -156 0
-12 -144 -48 -162 0
-18 -132 -54 -150 0
-18 -138 -54 -156 0
-18 -144 -54 -162 0
-24 -132 -60 -150 0
-24 -138 -60 -156 0
-24 -144 -60 -162 0
-30 -132 -66 -150 0
-30 -138 -66 -156 0
-30 -144 -66 -162 0
-36 -132 -72 -150 0
-36 -138 -72 -156 0
-36 -144 -72 -162 0
-6 -132 -78 -168 0
-6 -138 -78 -174 0
-6 -144 -78 -180 0
-12 -132 -78 -168 0
-12 -138 -78 -174 0
-12 -144 -78 -180 0
-12 -132 -84 -168 0
-12 -138 -84 -174 0
-12 -144 -84 -180 0
-18 -132 -84 -168 0
-18 -138 -84 -174 0
-18 -144 -84 -180 0
-18 -132 -90 -168 0
-18 -138 -90 -174 0
-18 -144 -90 -180 0
-24 -132 -90 -168 0
-24 -138 -90 -174 0
-24 -144 -90 -180 0
-24 -132 -96 -168 0
-24 -138 -96 -174 0
-24 -144 -96 -180 0
-30 -132 -96 -168 0
-30 -138 -96 -174 0
-30 -144 -96 -180 0
-30 -132 -102 -168 0
-30 -138 -102 -174 0
-30 -144 -102 -180 0
-36 -132 -102 -168 0
-36 -138 -102 -174 0
-36 -144 -102 -180 0
-6 -132 -108 -186 0
-6 -138 -108 -192 0
-6 -144 -108 -198 0
-12 -132 -108 -186 0
-12 -138 -108 -192 0
-12 -144 -108 -198 0
-12 -132 -114 -186 0
-12 -138 -114 -192 0
-12 -144 -114 -198 0
-18 -132 -108 -186 0
-18 -138 -108 -192 0
-18 -144 -108 -198 0
-18 -132 -114 -186 0
-18 -138 -114 -192 0
-18 -144 -114 -198 0
-18 -132 -120 -186 0
-18 -138 -120 -192 0
-18 -144 -120 -198 0
-24 -132 -114 -186 0
-24 -138 -114 -192 0
-24 -144 -114 -198 0
-24 -132 -120 -186 0
-24 -138 -120 -192 0
-24 -144 -120 -198 0
-24 -132 -126 -186 0
-24 -138 -126 -192 0
-24 -144 -126 -198 0
-30 -132 -120 -186 0
-30 -138 -120 -192 0
-30 -144 -120 -198 0
-30 -132 -126 -186 0
-30 -138 -126 -192 0
-30 -144 -126 -198 0
-36 -132 -126 -186 0
-36 -138 -126 -192 0
-36 -144 -126 -198 0
-42 -150 -78 -168 0
-42 -156 -78 -174 0
-42 -162 -78 -180 0
-48 -150 -78 -168 0
-48 -156 -78 -174 0
-48 -162 -78 -180 0
-48 -150 -84 -168 0
-48 -156 -84 -174 0
-48 -162 -84 -180 0
-54 -150 -84 -168 0
-54 -156 -84 -174 0
-54 -162 -84 -180 0
-54 -150 -90 -168 0
-54 -156 -90 -174 0
-54 -162 -90 -180 0
-60 -150 -90 -168 0
-60 -156 -90 -174 0
-60 -162 -90 -180 0
-60 -150 -96 -168 0
-60 -156 -96 -174 0
-60 -162 -96 -180 0
-66 -150 -96 -168 0
-66 -156 -96 -174 0
-66 -162 -96 -180 0
-66 -150 -102 -168 0
-66 -156 -102 -174 0
-66 -162 -102 -180 0
-72 -150 -102 -168 0
-72 -156 -102 -174 0
-72 -162 -102 -180 0
-42 -150 -108 -186 0
-42 -156 -108 -192 0
-42 -162 -108 -198 0
-48 -150 -108 -186 0
-48 -156 -108 -192 0
-48 -162 -108 -198 0
-48 -150 -114 -186 0
-48 -156 -114 -192 0
-48 -162 -114 -198 0
-54 -150 -108 -186 0
-54 -156 -108 -192 0
-54 -162 -108 -198 0
-54 -150 -114 -186 0
-54 -156 -114 -192 0
-54 -162 -114 -198 0
-54 -150 -120 -186 0
-54 -156 -120 -192 0
-54 -162 -120 -198 0
-60 -150 -114 -186 0
-60 -156 -114 -192 0
-60 -162 -114 -198 0
-60 -150 -120 -186 0
-60 -156 -120 -192 0
-60 -162 -120 -198 0
-60 -150 -126 -186 0
-60 -156 -126 -192 0
-60 -162 -126 -198 0
-66 -150 -120 -186 0
-66 -156 -120 -192 0
-66 -162 -120 -198 0
-66 -150 -126 -186 0
-66 -156 -126 -192 0
-66 -162 -126 -198 0
-72 -150 -126 -186 0
-72 -156 -126 -192 0
-72 -162 -126 -198 0
-78 -168 -108 -186 0
-78 -174 -108 -192 0
-78 -180 -108 -198 0
-78 -168 -114 -186 0
-78 -174 -114 -192 0
-78 -180 -114 -198 0
-84 -168 -108 -186 0
-84 -174 -108 -192 0
-84 -180 -108 -198 0
-84 -168 -114 -186 0
-84 -174 -114 -192 0
-84 -180 -114 -198 0
-84 -168 -120 -186 0
-84 -174 -120 -192 0
-84 -180 -120 -198 0
-90 -168 -108 -186 0
-90 -174 -108 -192 0
-90 -180 -108 -198 0
-90 -168 -114 -186 0
-90 -174 -114 -192 0
-90 -180 -114 -198 0
-90 -168 -120 -186 0
-90 -174 -120 -192 0
-90 -180 -120 -198 0
-90 -168 -126 -186 0
-90 -174 -126 -192 0
-90 -180 -126 -198 0
-96 -168 -114 -186 0
-96 -174 -114 -192 0
-96 -180 -114 -198 0
-96 -168 -120 -186 0
-96 -174 -120 -192 0
-96 -180 -120 -198 0
-96 -168 -126 -186 0
-96 -174 -126 -192 0
-96 -180 -126 -198 0
-102 -168 -120 -186 0
-102 -174 -120 -192 0
-102 -180 -120 -198 0
-102 -168 -126 -186 0
-102 -174 -126 -192 0
-102 -180 -126 -198 0
-199 -1 -127 -37 -151 0
-199 -1 -127 -73 -169 0
-199 -1 -127 -103 -187 0
-1 -127 199 37 151 73 169 103 187 0
-199 -1 -133 -37 -157 0
-199 -1 -133 -73 -175 0
-199 -1 -133 -103 -193 0
-1 -133 199 37 157 73 175 103 193 0
-199 -7 -127 -43 -151 0
-199 -7 -127 -73 -169 0
-199 -7 -127 -79 -169 0
-199 -7 -127 -103 -187 0
-199 -7 -127 -109 -187 0
-7 -127 199 43 151 73 169 79 169 103 187 109 187 0
-199 -7 -133 -43 -157 0
-199 -7 -133 -73 -175 0
-199 -7 -133 -79 -175 0
-199 -7 -133 -103 -193 0
-199 -7 -133 -109 -193 0
-7 -133 199 43 157 73 175 79 175 103 193 109 193 0
-199 -13 -127 -49 -151 0
-199 -13 -127 -79 -169 0
-199 -13 -127 -85 -169 0
-199 -13 -127 -103 -187 0
-199 -13 -127 -109 -187 0
-199 -13 -127 -115 -187 0
-13 -127 199 49 151 79 169 85 169 103 187 109 187 115 187 0
-199 -13 -133 -49 -157 0
-199 -13 -133 -79 -175 0
-199 -13 -133 -85 -175 0
-199 -13 -133 -103 -193 0
-199 -13 -133 -109 -193 0
-199 -13 -133 -115 -193 0
-13 -133 199 49 157 79 175 85 175 103 193 109 193 115 193 0
-199 -19 -127 -55 -151 0
-199 -19 -127 -85 -169 0
-199 -19 -127 -91 -169 0
-199 -19 -127 -109 -187 0
-199 -19 -127 -115 -187 0
-199 -19 -127 -121 -187 0
-19 -127 199 55 151 85 169 91 169 109 187 115 187 121 187 0
-199 -19 -133 -55 -157 0
-199 -19 -133 -85 -175 0
-199 -19 -133 -91 -175 0
-199 -19 -133 -109 -193 0
-199 -19 -133 -115 -193 0
-199 -19 -133 -121 -193 0
-19 -133 199 55 157 85 175 91 175 109 193 115 193 121 193 0
-199 -25 -127 -61 -151 0
-199 -25 -127 -91 -169 0
-199 -25 -127 -97 -169 0
-199 -25 -127 -115 -187 0
-199 -25 -127 -121 -187 0
-25 -127 199 61 151 91 169 97 169 115 187 121 187 0
-199 -25 -133 -61 -157 0
-199 -25 -133 -91 -175 0
-199 -25 -133 -97 -175 0
-199 -25 -133 -115 -193 0
-199 -25 -133 -121 -193 0
-25 -133 199 61 157 91 175 97 175 115 193 121 193 0
-199 -31 -127 -67 -151 0
-199 -31 -127 -97 -169 0
-199 -31 -127 -121 -187 0
-31 -127 199 67 151 97 169 121 187 0
-199 -31 -133 -67 -157 0
-199 -31 -133 -97 -175 0
-199 -31 -133 -121 -193 0
-31 -133 199 67 157 97 175 121 193 0
-205 -37 -145 -1 -133 0
-205 -37 -145 -73 -169 0
-205 -37 -145 -103 -187 0
-37 -145 205 1 133 73 169 103 187 0
-205 -37 -151 -1 -139 0
-205 -37 -151 -73 -175 0
-205 -37 -151 -103 -193 0
-37 -151 205 1 139 73 175 103 193 0
-205 -43 -145 -7 -133 0
-205 -43 -145 -73 -169 0
-205 -43 -145 -79 -169 0
-205 -43 -145 -103 -187 0
-205 -43 -145 -109 -187 0
-43 -145 205 7 133 73 169 79 169 103 187 109 187 0
-205 -43 -151 -7 -139 0
-205 -43 -151 -73 -175 0
-205 -43 -151 -79 -175 0
-205 -43 -151 -103 -193 0
-205 -43 -151 -109 -193 0
-43 -151 205 7 139 73 175 79 175 103 193 109 193 0
-205 -49 -145 -13 -133 0
-205 -49 -145 -79 -169 0
-205 -49 -145 -85 -169 0
-205 -49 -145 -103 -187 0
-205 -49 -145 -109 -187 0
-205 -49 -145 -115 -187 0
-49 -145 205 13 133 79 169 85 169 103 187 109 187 115 187 0
-205 -49 -151 -13 -139 0
-205 -49 -151 -79 -175 0
-205 -49 -151 -85 -175 0
-205 -49 -151 -103 -193 0
-205 -49 -151 -109 -193 0
-205 -49 -151 -115 -193 0
-49 -151 205 13 139 79 175 85 175 103 193 109 193 115 193 0
-205 -55 -145 -19 -133 0
-205 -55 -145 -85 -169 0
-205 -55 -145 -91 -169 0
-205 -55 -145 -109 -187 0
-205 -55 -145 -115 -187 0
-205 -55 -145 -121 -187 0
-55 -145 205 19 133 85 169 91 169 109 187 115 187 121 187 0
-205 -55 -151 -19 -139 0
-205 -55 -151 -85 -175 0
-205 -55 -151 -91 -175 0
-205 -55 -151 -109 -193 0
-205 -55 -151 -115 -193 0
-205 -55 -151 -121 -193 0
-55 -151 205 19 139 85 175 91 175 109 193 115 193 121 193 0
-205 -61 -145 -25 -133 0
-205 -61 -145 -91 -169 0
-205 -61 -145 -97 -169 0
-205 -61 -145 -115 -187 0
-205 -61 -145 -121 -187 0
-61 -145 205 25 133 91 169 97 169 115 187 121 187 0
-205 -61 -151 -25 -139 0
-205 -61 -151 -91 -175 0
-205 -61 -151 -97 -175 0
-205 -61 -151 -115 -193 0
-205 -61 -151 -121 -193 0
-61 -151 205 25 139 91 175 97 175 115 193 121 193 0
-205 -67 -145 -31 -133 0
-205 -67 -145 -97 -169 0
-205 -67 -145 -121 -187 0
-67 -145 205 31 133 97 169 121 187 0
-205 -67 -151 -31 -139 0
-205 -67 -151 -97 -175 0
-205 -67 -151 -121 -193 0
-67 -151 205 31 139 97 175 121 193 0
-211 -73 -163 -1 -133 0
-211 -73 -163 -7 -133 0
-211 -73 -163 -37 -151 0
-211 -73 -163 -43 -151 0
-211 -73 -163 -103 -187 0
-211 -73 -163 -109 -187 0
-73 -163 211 1 133 7 133 37 151 43 151 103 187 109 187 0
-211 -73 -169 -1 -139 0
-211 -73 -169 -7 -139 0
-211 -73 -169 -37 -157 0
-211 -73 -169 -43 -157 0
-211 -73 -169 -103 -193 0
-211 -73 -169 -109 -193 0
-73 -169 211 1 139 7 139 37 157 43 157 103 193 109 193 0
-211 -79 -163 -7 -133 0
-211 -79 -163 -13 -133 0
-211 -79 -163 -43 -151 0
-211 -79 -163 -49 -151 0
-211 -79 -163 -103 -187 0
-211 -79 -163 -109 -187 0
-211 -79 -163 -115 -187 0
-79 -163 211 7 133 13 133 43 151 49 151 103 187 109 187 115 187 0
-211 -79 -169 -7 -139 0
-211 -79 -169 -13 -139 0
-211 -79 -169 -43 -157 0
-211 -79 -169 -49 -157 0
-211 -79 -169 -103 -193 0
-211 -79 -169 -109 -193 0
-211 -79 -169 -115 -193 0
-79 -169 211 7 139 13 139 43 157 49 157 103 193 109 193 115 193 0
-211 -85 -163 -13 -133 0
-211 -85 -163 -19 -133 0
-211 -85 -163 -49 -151 0
-211 -85 -163 -55 -151 0
-211 -85 -163 -103 -187 0
-211 -85 -163 -109 -187 0
-211 -85 -163 -115 -187 0
-211 -85 -163 -121 -187 0
-85 -163 211 13 133 19 133 49 151 55 151 103 187 109 187 115 187 121 187 0
-211 -85 -169 -13 -139 0
-211 -85 -169 -19 -139 0
-211 -85 -169 -49 -157 0
-211 -85 -169 -55 -157 0
-211 -85 -169 -103 -193 0
-211 -85 -169 -109 -193 0
-211 -85 -169 -115 -193 0
-211 -85 -169 -121 -193 0
-85 -169 211 13 139 19 139 49 157 55 157 103 193 109 193 115 193 121 193 0
-211 -91 -163 -19 -133 0
-211 -91 -163 -25 -133 0
-211 -91 -163 -55 -151 0
-211 -91 -163 -61 -151 0
-211 -91 -163 -109 -187 0
-211 -91 -163 -115 -187 0
-211 -91 -163 -121 -187 0
-91 -163 211 19 133 25 133 55 151 61 151 109 187 115 187 121 187 0
-211 -91 -169 -19 -139 0
-211 -91 -169 -25 -139 0
-211 -91 -169 -55 -157 0
-211 -91 -169 -61 -157 0
-211 -91 -169 -109 -193 0
-211 -91 -169 -115 -193 0
-211 -91 -169 -121 -193 0
-91 -169 211 19 139 25 139 55 157 61 157 109 193 115 193 121 193 0
-211 -97 -163 -25 -133 0
-211 -97 -163 -31 -133 0
-211 -97 -163 -61 -151 0
-211 -97 -163 -67 -151 0
-211 -97 -163 -115 -187 0
-211 -97 -163 -121 -187 0
-97 -163 211 25 133 31 133 61 151 67 151 115 187 121 187 0
-211 -97 -169 -25 -139 0
-211 -97 -169 -31 -139 0
-211 -97 -169 -61 -157 0
-211 -97 -169 -67 -157 0
-211 -97 -169 -115 -193 0
-211 -97 -169 -121 -193 0
-97 -169 211 25 139 31 139 61 157 67 157 115 193 121 193 0
-217 -103 -181 -1 -133 0
-217 -103 -181 -7 -133 0
-217 -103 -181 -13 -133 0
-217 -103 -181 -37 -151 0
-217 -103 -181 -43 -151 0
-217 -103 -181 -49 -151 0
-217 -103 -181 -73 -169 0
-217 -103 -181 -79 -169 0
-217 -103 -181 -85 -169 0
-103 -181 217 1 133 7 133 13 133 37 151 43 151 49 151 73 169 79 169 85 169 0
-217 -103 -187 -1 -139 0
-217 -103 -187 -7 -139 0
-217 -103 -187 -13 -139 0
-217 -103 -187 -37 -157 0
-217 -103 -187 -43 -157 0
-217 -103 -187 -49 -157 0
-217 -103 -187 -73 -175 0
-217 -103 -187 -79 -175 0
-217 -103 -187 -85 -175 0
-103 -187 217 1 139 7 139 13 139 37 157 43 157 49 157 73 175 79 175 85 175 0
-217 -109 -181 -7 -133 0
-217 -109 -181 -13 -133 0
-217 -109 -181 -19 -133 0
-217 -109 -181 -43 -151 0
-217 -109 -181 -49 -151 0
-217 -109 -181 -55 -151 0
-217 -109 -181 -73 -169 0
-217 -109 -181 -79 -169 0
-217 -109 -181 -85 -169 0
-217 -109 -181 -91 -169 0
-109 -181 217 7 133 13 133 19 133 43 151 49 151 55 151 73 169 79 169 85 169 91 169 0
-217 -109 -187 -7 -139 0
-217 -109 -187 -13 -139 0
-217 -109 -187 -19 -139 0
-217 -109 -187 -43 -157 0
-217 -109 -187 -49 -157 0
-217 -109 -187 -55 -157 0
-217 -109 -187 -73 -175 0
-217 -109 -187 -79 -175 0
-217 -109 -187 -85 -175 0
-217 -109 -187 -91 -175 0
-109 -187 217 7 139 13 139 19 139 43 157 49 157 55 157 73 175 79 175 85 175 91 175 0
-217 -115 -181 -13 -133 0
-217 -115 -181 -19 -133 0
-217 -115 -181 -25 -133 0
-217 -115 -181 -49 -151 0
-217 -115 -181 -55 -151 0
-217 -115 -181 -61 -151 0
-217 -115 -181 -79 -169 0
-217 -115 -181 -85 -169 0
-217 -115 -181 -91 -169 0
-217 -115 -181 -97 -169 0
-115 -181 217 13 133 19 133 25 133 49 151 55 151 61 151 79 169 85 169 91 169 97 169 0
-217 -115 -187 -13 -139 0
-217 -115 -187 -19 -139 0
-217 -115 -187 -25 -139 0
-217 -115 -187 -49 -157 0
-217 -115 -187 -55 -157 0
-217 -115 -187 -61 -157 0
-217 -115 -187 -79 -175 0
-217 -115 -187 -85 -175 0
-217 -115 -187 -91 -175 0
-217 -115 -187 -97 -175 0
-115 -187 217 13 139 19 139 25 139 49 157 55 157 61 157 79 175 85 175 91 175 97 175 0
-217 -121 -181 -19 -133 0
-217 -121 -181 -25 -133 0
-217 -121 -181 -31 -133 0
-217 -121 -181 -55 -151 0
-217 -121 -181 -61 -151 0
-217 -121 -181 -67 -151 0
-217 -121 -181 -85 -169 0
-217 -121 -181 -91 -169 0
-217 -121 -181 -97 -169 0
-121 -181 217 19 133 25 133 31 133 55 151 61 151 67 151 85 169 91 169 97 169 0
-217 -121 -187 -19 -139 0
-217 -121 -187 -25 -139 0
-217 -121 -187 -31 -139 0
-217 -121 -187 -55 -157 0
-217 -121 -187 -61 -157 0
-217 -121 -187 -67 -157 0
-217 -121 -187 -85 -175 0
-217 -121 -187 -91 -175 0
-217 -121 -187 -97 -175 0
-121 -187 217 19 139 25 139 31 139 55 157 61 157 67 157 85 175 91 175 97 175 0
-200 -2 -128 -38 -152 0
-200 -2 -128 -74 -170 0
-200 -2 -128 -104 -188 0
-2 -128 200 38 152 74 170 104 188 0
-200 -2 -134 -38 -158 0
-200 -2 -134 -74 -176 0
-200 -2 -134 -104 -194 0
-2 -134 200 38 158 74 176 104 194 0
-200 -8 -128 -44 -152 0
-200 -8 -128 -74 -170 0
-200 -8 -128 -80 -170 0
-200 -8 -128 -104 -188 0
-200 -8 -128 -110 -188 0
-8 -128 200 44 152 74 170 80 170 104 188 110 188 0
-200 -8 -134 -44 -158 0
-200 -8 -134 -74 -176 0
-200 -8 -134 -80 -176 0
-200 -8 -134 -104 -194 0
-200 -8 -134 -110 -194 0
-8 -134 200 44 158 74 176 80 176 104 194 110 194 0
-200 -14 -128 -50 -152 0
-200 -14 -128 -80 -170 0
-200 -14 -128 -86 -170 0
-200 -14 -128 -104 -188 0
-200 -14 -128 -110 -188 0
-200 -14 -128 -116 -188 0
-14 -128 200 50 152 80 170 86 170 104 188 110 188 116 188 0
-200 -14 -134 -50 -158 0
-200 -14 -134 -80 -176 0
-200 -14 -134 -86 -176 0
-200 -14 -134 -104 -194 0
-200 -14 -134 -110 -194 0
-200 -14 -134 -116 -194 0
-14 -134 200 50 158 80 176 86 176 104 194 110 194 116 194 0
-200 -20 -128 -56 -152 0
-200 -20 -128 -86 -170 0
-200 -20 -128 -92 -170 0
-200 -20 -128 -110 -188 0
-200 -20 -128 -116 -188 0
-200 -20 -128 -122 -188 0
-20 -128 200 56 152 86 170 92 170 110 188 116 188 122 188 0
-200 -20 -134 -56 -158 0
-200 -20 -134 -86 -176 0
-200 -20 -134 -92 -176 0
-200 -20 -134 -110 -194 0
-200 -20 -134 -116 -194 0
-200 -20 -134 -122 -194 0
-20 -134 200 56 158 86 176 92 176 110 194 116 194 122 194 0
-200 -26 -128 -62 -152 0
-200 -26 -128 -92 -170 0
-200 -26 -128 -98 -170 0
-200 -26 -128 -116 -188 0
-200 -26 -128 -122 -188 0
-26 -128 200 62 152 92 170 98 170 116 188 122 188 0
-200 -26 -134 -62 -158 0
-200 -26 -134 -92 -176 0
-200 -26 -134 -98 -176 0
-200 -26 -134 -116 -194 0
-200 -26 -134 -122 -194 0
-26 -134 200 62 158 92 176 98 176 116 194 122 194 0
-200 -32 -128 -68 -152 0
-200 -32 -128 -98 -170 0
-200 -32 -128 -122 -188 0
-32 -128 200 68 152 98 170 122 188 0
-200 -32 -134 -68 -158 0
-200 -32 -134 -98 -176 0
-200 -32 -134 -122 -194 0
-32 -134 200 68 158 98 176 122 194 0
-206 -38 -146 -2 -134 0
-206 -38 -146 -74 -170 0
-206 -38 -146 -104 -188 0
-38 -146 206 2 134 74 170 104 188 0
-206 -38 -152 -2 -140 0
-206 -38 -152 -74 -176 0
-206 -38 -152 -104 -194 0
-38 -152 206 2 140 74 176 104 194 0
-206 -44 -146 -8 -134 0
-206 -44 -146 -74 -170 0
-206 -44 -146 -80 -170 0
-206 -44 -146 -104 -188 0
-206 -44 -146 -110 -188 0
-44 -146 206 8 134 74 170 80 170 104 188 110 188 0
-206 -44 -152 -8 -140 0
-206 -44 -152 -74 -176 0
-206 -44 -152 -80 -176 0
-206 -44 -152 -104 -194 0
-206 -44 -152 -110 -194 0
-44 -152 206 8 140 74 176 80 176 104 194 110 194 0
-206 -50 -146 -14 -134 0
-206 -50 -146 -80 -170 0
-206 -50 -146 -86 -170 0
-206 -50 -146 -104 -188 0
-206 -50 -146 -110 -188 0
-206 -50 -146 -116 -188 0
-50 -146 206 14 134 80 170 86 170 104 188 110 188 116 188 0
-206 -50 -152 -14 -140 0
-206 -50 -152 -80 -176 0
-206 -50 -152 -86 -176 0
-206 -50 -152 -104 -194 0
-206 -50 -152 -110 -194 0
-206 -50 -152 -116 -194 0
-50 -152 206 14 140 80 176 86 176 104 194 110 194 116 194 0
-206 -56 -146 -20 -134 0
-206 -56 -146 -86 -170 0
-206 -56 -146 -92 -170 0
-206 -56 -146 -110 -188 0
-206 -56 -146 -116 -188 0
-206 -56 -146 -122 -188 0
-56 -146 206 20 134 86 170 92 170 110 188 116 188 122 188 0
-206 -56 -152 -20 -140 0
-206 -56 -152 -86 -176 0
-206 -56 -152 -92 -176 0
-206 -56 -152 -110 -194 0
-206 -56 -152 -116 -194 0
-206 -56 -152 -122 -194 0
-56 -152 206 20 140 86 176 92 176 110 194 116 194 122 194 0
-206 -62 -146 -26 -134 0
-206 -62 -146 -92 -170 0
-206 -62 -146 -98 -170 0
-206 -62 -146 -116 -188 0
-206 -62 -146 -122 -188 0
-62 -146 206 26 134 92 170 98 170 116 188 122 188 0
-206 -62 -152 -26 -140 0
-206 -62 -152 -92 -176 0
-206 -62 -152 -98 -176 0
-206 -62 -152 -116 -194 0
-206 -62 -152 -122 -194 0
-62 -152 206 26 140 92 176 98 176 116 194 122 194 0
-206 -68 -146 -32 -134 0
-206 -68 -146 -98 -170 0
-206 -68 -146 -122 -188 0
-68 -146 206 32 134 98 170 122 188 0
-206 -68 -152 -32 -140 0
-206 -68 -152 -98 -176 0
-206 -68 -152 -122 -194 0
-68 -152 206 32 140 98 176 122 194 0
-212 -74 -164 -2 -134 0
-212 -74 -164 -8 -134 0
-212 -74 -164 -38 -152 0
-212 -74 -164 -44 -152 0
-212 -74 -164 -104 -188 0
-212 -74 -164 -110 -188 0
-74 -164 212 2 134 8 134 38 152 44 152 104 188 110 188 0
-212 -74 -170 -2 -140 0
-212 -74 -170 -8 -140 0
-212 -74 -170 -38 -158 0
-212 -74 -170 -44 -158 0
-212 -74 -170 -104 -194 0
-212 -74 -170 -110 -194 0
-74 -170 212 2 140 8 140 38 158 44 158 104 194 110 194 0
-212 -80 -164 -8 -134 0
-212 -80 -164 -14 -134 0
-212 -80 -164 -44 -152 0
-212 -80 -164 -50 -152 0
-212 -80 -164 -104 -188 0
-212 -80 -164 -110 -188 0
-212 -80 -164 -116 -188 0
-80 -164 212 8 134 14 134 44 152 50 152 104 188 110 188 116 188 0
-212 -80 -170 -8 -140 0
-212 -80 -170 -14 -140 0
-212 -80 -170 -44 -158 0
-212 -80 -170 -50 -158 0
-212 -80 -170 -104 -194 0
-212 -80 -170 -110 -194 0
-212 -80 -170 -116 -194 0
-80 -170 212 8 140 14 140 44 158 50 158 104 194 110 194 116 194 0
-212 -86 -164 -14 -134 0
-212 -86 -164 -20 -134 0
-212 -86 -164 -50 -152 0
-212 -86 -164 -56 -152 0
-212 -86 -164 -104 -188 0
-212 -86 -164 -110 -188 0
-212 -86 -164 -116 -188 0
-212 -86 -164 -122 -188 0
-86 -164 212 14 134 20 134 50 152 56 152 104 188 110 188 116 188 122 188 0
-212 -86 -170 -14 -140 0
-212 -86 -170 -20 -140 0
-212 -86 -170 -50 -158 0
-212 -86 -170 -56 -158 0
-212 -86 -170 -104 -194 0
-212 -86 -170 -110 -194 0
-212 -86 -170 -116 -194 0
-212 -86 -170 -122 -194 0
-86 -170 212 14 140 20 140 50 158 56 158 104 194 110 194 116 194 122 194 0
-212 -92 -164 -20 -134 0
-212 -92 -164 -26 -134 0
-212 -92 -164 -56 -152 0
-212 -92 -164 -62 -152 0
-212 -92 -164 -110 -188 0
-212 -92 -164 -116 -188 0
-212 -92 -164 -122 -188 0
-92 -164 212 20 134 26 134 56 152 62 152 110 188 116 188 122 188 0
-212 -92 -170 -20 -140 0
-212 -92 -170 -26 -140 0
-212 -92 -170 -56 -158 0
-212 -92 -170 -62 -158 0
-212 -92 -170 -110 -194 0
-212 -92 -170 -116 -194 0
-212 -92 -170 -122 -194 0
-92 -170 212 20 140 26 140 56 158 62 158 110 194 116 194 122 194 0
-212 -98 -164 -26 -134 0
-212 -98 -164 -32 -134 0
-212 -98 -164 -62 -152 0
-212 -98 -164 -68 -152 0
-212 -98 -164 -116 -188 0
-212 -98 -164 -122 -188 0
-98 -164 212 26 134 32 134 62 152 68 152 116 188 122 188 0
-212 -98 -170 -26 -140 0
-212 -98 -170 -32 -140 0
-212 -98 -170 -62 -158 0
-212 -98 -170 -68 -158 0
-212 -98 -170 -116 -194 0
-212 -98 -170 -122 -194 0
-98 -170 212 26 140 32 140 62 158 68 158 116 194 122 194 0
-218 -104 -182 -2 -134 0
-218 -104 -182 -8 -134 0
-218 -104 -182 -14 -134 0
-218 -104 -182 -38 -152 0
-218 -104 -182 -44 -152 0
-218 -104 -182 -50 -152 0
-218 -104 -182 -74 -170 0
-218 -104 -182 -80 -170 0
-218 -104 -182 -86 -170 0
-104 -182 218 2 134 8 134 14 134 38 152 44 152 50 152 74 170 80 170 86 170 0
-218 -104 -188 -2 -140 0
-218 -104 -188 -8 -140 0
-218 -104 -188 -14 -140 0
-218 -104 -188 -38 -158 0
-218 -104 -188 -44 -158 0
-218 -104 -188 -50 -158 0
-218 -104 -188 -74 -176 0
-218 -104 -188 -80 -176 0
-218 -104 -188 -86 -176 0
-104 -188 218 2 140 8 140 14 140 38 158 44 158 50 158 74 176 80 176 86 176 0
-218 -110 -182 -8 -134 0
-218 -110 -182 -14 -134 0
-218 -110 -182 -20 -134 0
-218 -110 -182 -44 -152 0
-218 -110 -182 -50 -152 0
-218 -110 -182 -56 -152 0
-218 -110 -182 -74 -170 0
-218 -110 -182 -80 -170 0
-218 -110 -182 -86 -170 0
-218 -110 -182 -92 -170 0
-110 -182 218 8 134 14 134 20 134 44 152 50 152 56 152 74 170 80 170 86 170 92 170 0
-218 -110 -188 -8 -140 0
-218 -110 -188 -14 -140 0
-218 -110 -188 -20 -140 0
-218 -110 -188 -44 -158 0
-218 -110 -188 -50 -158 0
-218 -110 -188 -56 -158 0
-218 -110 -188 -74 -176 0
-218 -110 -188 -80 -176 0
-218 -110 -188 -86 -176 0
-218 -110 -188 -92 -176 0
-110 -188 218 8 140 14 140 20 140 44 158 50 158 56 158 74 176 80 176 86 176 92 176 0
-218 -116 -182 -14 -134 0
-218 -116 -182 -20 -134 0
-218 -116 -182 -26 -134 0
-218 -116 -182 -50 -152 0
-218 -116 -182 -56 -152 0
-218 -116 -182 -62 -152 0
-218 -116 -182 -80 -170 0
-218 -116 -182 -86 -170 0
-218 -116 -182 -92 -170 0
-218 -116 -182 -98 -170 0
-116 -182 218 14 134 20 134 26 134 50 152 56 152 62 152 80 170 86 170 92 170 98 170 0
-218 -116 -188 -14 -140 0
-218 -116 -188 -20 -140 0
-218 -116 -188 -26 -140 0
-218 -116 -188 -50 -158 0
-218 -116 -188 -56 -158 0
-218 -116 -188 -62 -158 0
-218 -116 -188 -80 -176 0
-218 -116 -188 -86 -176 0
-218 -116 -188 -92 -176 0
-218 -116 -188 -98 -176 0
-116 -188 218 14 140 20 140 26 140 50 158 56 158 62 158 80 176 86 176 92 176 98 176 0
-218 -122 -182 -20 -134 0
-218 -122 -182 -26 -134 0
-218 -122 -182 -32 -134 0
-218 -122 -182 -56 -152 0
-218 -122 -182 -62 -152 0
-218 -122 -182 -68 -152 0
-218 -122 -182 -86 -170 0
-218 -122 -182 -92 -170 0
-218 -122 -182 -98 -170 0
-122 -182 218 20 134 26 134 32 134 56 152 62 152 68 152 86 170 92 170 98 170 0
-218 -122 -188 -20 -140 0
-218 -122 -188 -26 -140 0
-218 -122 -188 -32 -140 0
-218 -122 -188 -56 -158 0
-218 -122 -188 -62 -158 0
-218 -122 -188 -68 -158 0
-218 -122 -188 -86 -176 0
-218 -122 -188 -92 -176 0
-218 -122 -188 -98 -176 0
-122 -188 218 20 140 26 140 32 140 56 158 62 158 68 158 86 176 92 176 98 176 0
-201 -3 -129 -39 -153 0
-201 -3 -129 -75 -171 0
-201 -3 -129 -105 -189 0
-3 -129 201 39 153 75 171 105 189 0
-201 -3 -135 -39 -159 0
-201 -3 -135 -75 -177 0
-201 -3 -135 -105 -195 0
-3 -135 201 39 159 75 177 105 195 0
-201 -9 -129 -45 -153 0
-201 -9 -129 -75 -171 0
-201 -9 -129 -81 -171 0
-201 -9 -129 -105 -189 0
-201 -9 -129 -111 -189 0
-9 -129 201 45 153 75 171 81 171 105 189 111 189 0
-201 -9 -135 -45 -159 0
-201 -9 -135 -75 -177 0
-201 -9 -135 -81 -177 0
-201 -9 -135 -105 -195 0
-201 -9 -135 -111 -195 0
-9 -135 201 45 159 75 177 81 177 105 195 111 195 0
-201 -15 -129 -51 -153 0
-201 -15 -129 -81 -171 0
-201 -15 -129 -87 -171 0
-201 -15 -129 -105 -189 0
-201 -15 -129 -111 -189 0
-201 -15 -129 -117 -189 0
-15 -129 201 51 153 81 171 87 171 105 189 111 189 117 189 0
-201 -15 -135 -51 -159 0
-201 -15 -135 -81 -177 0
-201 -15 -135 -87 -177 0
-201 -15 -135 -105 -195 0
-201 -15 -135 -111 -195 0
-201 -15 -135 -117 -195 0
-15 -135 201 51 159 81 177 87 177 105 195 111 195 117 195 0
-201 -21 -129 -57 -153 0
-201 -21 -129 -87 -171 0
-201 -21 -129 -93 -171 0
-201 -21 -129 -111 -189 0
-201 -21 -129 -117 -189 0
-201 -21 -129 -123 -189 0
-21 -129 201 57 153 87 171 93 171 111 189 117 189 123 189 0
-201 -21 -135 -57 -159 0
-201 -21 -135 -87 -177 0
-201 -21 -135 -93 -177 0
-201 -21 -135 -111 -195 0
-201 -21 -135 -117 -195 0
-201 -21 -135 -123 -195 0
-21 -135 201 57 159 87 177 93 177 111 195 117 195 123 195 0
-201 -27 -129 -63 -153 0
-201 -27 -129 -93 -171 0
-201 -27 -129 -99 -171 0
-201 -27 -129 -117 -189 0
-201 -27 -129 -123 -189 0
-27 -129 201 63 153 93 171 99 171 117 189 123 189 0
-201 -27 -135 -63 -159 0
-201 -27 -135 -93 -177 0
-201 -27 -135 -99 -177 0
-201 -27 -135 -117 -195 0
-201 -27 -135 -123 -195 0
-27 -135 201 63 159 93 177 99 177 117 195 123 195 0
-201 -33 -129 -69 -153 0
-201 -33 -129 -99 -171 0
-201 -33 -129 -123 -189 0
-33 -129 201 69 153 99 171 123 189 0
-201 -33 -135 -69 -159 0
-201 -33 -135 -99 -177 0
-201 -33 -135 -123 -195 0
-33 -135 201 69 159 99 177 123 195 0
-207 -39 -147 -3 -135 0
-207 -39 -147 -75 -171 0
-207 -39 -147 -105 -189 0
-39 -147 207 3 135 75 171 105 189 0
-207 -39 -153 -3 -141 0
-207 -39 -153 -75 -177 0
-207 -39 -153 -105 -195 0
-39 -153 207 3 141 75 177 105 195 0
-207 -45 -147 -9 -135 0
-207 -45 -147 -75 -171 0
-207 -45 -147 -81 -171 0
-207 -45 -147 -105 -189 0
-207 -45 -147 -111 -189 0
-45 -147 207 9 135 75 171 81 171 105 189 111 189 0
-207 -45 -153 -9 -141 0
-207 -45 -153 -75 -177 0
-207 -45 -153 -81 -177 0
-207 -45 -153 -105 -195 0
-207 -45 -153 -111 -195 0
-45 -153 207 9 141 75 177 81 177 105 195 111 195 0
-207 -51 -147 -15 -135 0
-207 -51 -147 -81 -171 0
-207 -51 -147 -87 -171 0
-207 -51 -147 -105 -189 0
-207 -51 -147 -111 -189 0
-207 -51 -147 -117 -189 0
-51 -147 207 15 135 81 171 87 171 105 189 111 189 117 189 0
-207 -51 -153 -15 -141 0
-207 -51 -153 -81 -177 0
-207 -51 -153 -87 -177 0
-207 -51 -153 -105 -195 0
-207 -51 -153 -111 -195 0
-207 -51 -153 -117 -195 0
-51 -153 207 15 141 81 177 87 177 105 195 111 195 117 195 0
-207 -57 -147 -21 -135 0
-207 -57 -147 -87 -171 0
-207 -57 -147 -93 -171 0
-207 -57 -147 -111 -189 0
-207 -57 -147 -117 -189 0
-207 -57 -147 -123 -189 0
-57 -147 207 21 135 87 171 93 171 111 189 117 189 123 189 0
-207 -57 -153 -21 -141 0
-207 -57 -153 -87 -177 0
-207 -57 -153 -93 -177 0
-207 -57 -153 -111 -195 0
-207 -57 -153 -117 -195 0
-207 -57 -153 -123 -195 0
-57 -153 207 21 141 87 177 93 177 111 195 117 195 123 195 0
-207 -63 -147 -27 -135 0
-207 -63 -147 -93 -171 0
-207 -63 -147 -99 -171 0
-207 -63 -147 -117 -189 0
-207 -63 -147 -123 -189 0
-63 -147 207 27 135 93 171 99 171 117 189 123 189 0
-207 -63 -153 -27 -141 0
-207 -63 -153 -93 -177 0
-207 -63 -153 -99 -177 0
-207 -63 -153 -117 -195 0
-207 -63 -153 -123 -195 0
-63 -153 207 27 141 93 177 99 177 117 195 123 195 0
-207 -69 -147 -33 -135 0
-207 -69 -147 -99 -171 0
-207 -69 -147 -123 -189 0
-69 -147 207 33 135 99 171 123 189 0
-207 -69 -153 -33 -141 0
-207 -69 -153 -99 -177 0
-207 -69 -153 -123 -195 0
-69 -153 207 33 141 99 177 123 195 0
-213 -75 -165 -3 -135 0
-213 -75 -165 -9 -135 0
-213 -75 -165 -39 -153 0
-213 -75 -165 -45 -153 0
-213 -75 -165 -105 -189 0
-213 -75 -165 -111 -189 0
-75 -165 213 3 135 9 135 39 153 45 153 105 189 111 189 0
-213 -75 -171 -3 -141 0
-213 -75 -171 -9 -141 0
-213 -75 -171 -39 -159 0
-213 -75 -171 -45 -159 0
-213 -75 -171 -105 -195 0
-213 -75 -171 -111 -195 0
-75 -171 213 3 141 9 141 39 159 45 159 105 195 111 195 0
-213 -81 -165 -9 -135 0
-213 -81 -165 -15 -135 0
-213 -81 -165 -45 -153 0
-213 -81 -165 -51 -153 0
-213 -81 -165 -105 -189 0
-213 -81 -165 -111 -189 0
-213 -81 -165 -117 -189 0
-81 -165 213 9 135 15 135 45 153 51 153 105 189 111 189 117 189 0
-213 -81 -171 -9 -141 0
-213 -81 -171 -15 -141 0
-213 -81 -171 -45 -159 0
-213 -81 -171 -51 -159 0
-213 -81 -171 -105 -195 0
-213 -81 -171 -111 -195 0
-213 -81 -171 -117 -195 0
-81 -171 213 9 141 15 141 45 159 51 159 105 195 111 195 117 195 0
-213 -87 -165 -15 -135 0
-213 -87 -165 -21 -135 0
-213 -87 -165 -51 -153 0
-213 -87 -165 -57 -153 0
-213 -87 -165 -105 -189 0
-213 -87 -165 -111 -189 0
-213 -87 -165 -117 -189 0
-213 -87 -165 -123 -189 0
-87 -165 213 15 135 21 135 51 153 57 153 105 189 111 189 117 189 123 189 0
-213 -87 -171 -15 -141 0
-213 -87 -171 -21 -141 0
-213 -87 -171 -51 -159 0
-213 -87 -171 -57 -159 0
-213 -87 -171 -105 -195 0
-213 -87 -171 -111 -195 0
-213 -87 -171 -117 -195 0
-213 -87 -171 -123 -195 0
-87 -171 213 15 141 21 141 51 159 57 159 105 195 111 195 117 195 123 195 0
-213 -93 -165 -21 -135 0
-213 -93 -165 -27 -135 0
-213 -93 -165 -57 -153 0
-213 -93 -165 -63 -153 0
-213 -93 -165 -111 -189 0
-213 -93 -165 -117 -189 0
-213 -93 -165 -123 -189 0
-93 -165 213 21 135 27 135 57 153 63 153 111 189 117 189 123 189 0
-213 -93 -171 -21 -141 0
-213 -93 -171 -27 -141 0
-213 -93 -171 -57 -159 0
-213 -93 -171 -63 -159 0
-213 -93 -171 -111 -195 0
-213 -93 -171 -117 -195 0
-213 -93 -171 -123 -195 0
-93 -171 213 21 141 27 141 57 159 63 159 111 195 117 195 123 195 0
-213 -99 -165 -27 -135 0
-213 -99 -165 -33 -135 0
-213 -99 -165 -63 -153 0
-213 -99 -165 -69 -153 0
-213 -99 -165 -117 -189 0
-213 -99 -165 -123 -189 0
-99 -165 213 27 135 33 135 63 153 69 153 117 189 123 189 0
-213 -99 -171 -27 -141 0
-213 -99 -171 -33 -141 0
-213 -99 -171 -63 -159 0
-213 -99 -171 -69 -159 0
-213 -99 -171 -117 -195 0
-213 -99 -171 -123 -195 0
-99 -171 213 27 141 33 141 63 159 69 159 117 195 123 195 0
-219 -105 -183 -3 -135 0
-219 -105 -183 -9 -135 0
-219 -105 -183 -15 -135 0
-219 -105 -183 -39 -153 0
-219 -105 -183 -45 -153 0
-219 -105 -183 -51 -153 0
-219 -105 -183 -75 -171 0
-219 -105 -183 -81 -171 0
-219 -105 -183 -87 -171 0
-105 -183 219 3 135 9 135 15 135 39 153 45 153 51 153 75 171 81 171 87 171 0
-219 -105 -189 -3 -141 0
-219 -105 -189 -9 -141 0
-219 -105 -189 -15 -141 0
-219 -105 -189 -39 -159 0
-219 -105 -189 -45 -159 0
-219 -105 -189 -51 -159 0
-219 -105 -189 -75 -177 0
-219 -105 -189 -81 -177 0
-219 -105 -189 -87 -177 0
-105 -189 219 3 141 9 141 15 141 39 159 45 159 51 159 75 177 81 177 87 177 0
-219 -111 -183 -9 -135 0
-219 -111 -183 -15 -135 0
-219 -111 -183 -21 -135 0
-219 -111 -183 -45 -153 0
-219 -111 -183 -51 -153 0
-219 -111 -183 -57 -153 0
-219 -111 -183 -75 -171 0
-219 -111 -183 -81 -171 0
-219 -111 -183 -87 -171 0
-219 -111 -183 -93 -171 0
-111 -183 219 9 135 15 135 21 135 45 153 51 153 57 153 75 171 81 171 87 171 93 171 0
-219 -111 -189 -9 -141 0
-219 -111 -189 -15 -141 0
-219 -111 -189 -21 -141 0
-219 -111 -189 -45 -159 0
-219 -111 -189 -51 -159 0
-219 -111 -189 -57 -159 0
-219 -111 -189 -75 -177 0
-219 -111 -189 -81 -177 0
-219 -111 -189 -87 -177 0
-219 -111 -189 -93 -177 0
-111 -189 219 9 141 15 141 21 141 45 159 51 159 57 159 75 177 81 177 87 177 93 177 0
-219 -117 -183 -15 -135 0
-219 -117 -183 -21 -135 0
-219 -117 -183 -27 -135 0
-219 -117 -183 -51 -153 0
-219 -117 -183 -57 -153 0
-219 -117 -183 -63 -153 0
-219 -117 -183 -81 -171 0
-219 -117 -183 -87 -171 0
-219 -117 -183 -93 -171 0
-219 -117 -183 -99 -171 0
-117 -183 219 15 135 21 135 27 135 51 153 57 153 63 153 81 171 87 171 93 171 99 171 0
-219 -117 -189 -15 -141 0
-219 -117 -189 -21 -141 0
-219 -117 -189 -27 -141 0
-219 -117 -189 -51 -159 0
-219 -117 -189 -57 -159 0
-219 -117 -189 -63 -159 0
-219 -117 -189 -81 -177 0
-219 -117 -189 -87 -177 0
-219 -117 -189 -93 -177 0
-219 -117 -189 -99 -177 0
-117 -189 219 15 141 21 141 27 141 51 159 57 159 63 159 81 177 87 177 93 177 99 177 0
-219 -123 -183 -21 -135 0
-219 -123 -183 -27 -135 0
-219 -123 -183 -33 -135 0
-219 -123 -183 -57 -153 0
-219 -123 -183 -63 -153 0
-219 -123 -183 -69 -153 0
-219 -123 -183 -87 -171 0
-219 -123 -183 -93 -171 0
-219 -123 -183 -99 -171 0
-123 -183 219 21 135 27 135 33 135 57 153 63 153 69 153 87 171 93 171 99 171 0
-219 -123 -189 -21 -141 0
-219 -123 -189 -27 -141 0
-219 -123 -189 -33 -141 0
-219 -123 -189 -57 -159 0
-219 -123 -189 -63 -159 0
-219 -123 -189 -69 -159 0
-219 -123 -189 -87 -177 0
-219 -123 -189 -93 -177 0
-219 -123 -189 -99 -177 0
-123 -189 219 21 141 27 141 33 141 57 159 63 159 69 159 87 177 93 177 99 177 0
-202 -4 -130 -40 -154 0
-202 -4 -130 -76 -172 0
-202 -4 -130 -106 -190 0
-4 -130 202 40 154 76 172 106 190 0
-202 -4 -136 -40 -160 0
-202 -4 -136 -76 -178 0
-202 -4 -136 -106 -196 0
-4 -136 202 40 160 76 178 106 196 0
-202 -10 -130 -46 -154 0
-202 -10 -130 -76 -172 0
-202 -10 -130 -82 -172 0
-202 -10 -130 -106 -190 0
-202 -10 -130 -112 -190 0
-10 -130 202 46 154 76 172 82 172 106 190 112 190 0
-202 -10 -136 -46 -160 0
-202 -10 -136 -76 -178 0
-202 -10 -136 -82 -178 0
-202 -10 -136 -106 -196 0
-202 -10 -136 -112 -196 0
-10 -136 202 46 160 76 178 82 178 106 196 112 196 0
-202 -16 -130 -52 -154 0
-202 -16 -130 -82 -172 0
-202 -16 -130 -88 -172 0
-202 -16 -130 -106 -190 0
-202 -16 -130 -112 -190 0
-202 -16 -130 -118 -190 0
-16 -130 202 52 154 82 172 88 172 106 190 112 190 118 190 0
-202 -16 -136 -52 -160 0
-202 -16 -136 -82 -178 0
-202 -16 -136 -88 -178 0
-202 -16 -136 -106 -196 0
-202 -16 -136 -112 -196 0
-202 -16 -136 -118 -196 0
-16 -136 202 52 160 82 178 88 178 106 196 112 196 118 196 0
-202 -22 -130 -58 -154 0
-202 -22 -130 -88 -172 0
-202 -22 -130 -94 -172 0
-202 -22 -130 -112 -190 0
-202 -22 -130 -118 -190 0
-202 -22 -130 -124 -190 0
-22 -130 202 58 154 88 172 94 172 112 190 118 190 124 190 0
-202 -22 -136 -58 -160 0
-202 -22 -136 -88 -178 0
-202 -22 -136 -94 -178 0
-202 -22 -136 -112 -196 0
-202 -22 -136 -118 -196 0
-202 -22 -136 -124 -196 0
-22 -136 202 58 160 88 178 94 178 112 196 118 196 124 196 0
-202 -28 -130 -64 -154 0
-202 -28 -130 -94 -172 0
-202 -28 -130 -100 -172 0
-202 -28 -130 -118 -190 0
-202 -28 -130 -124 -190 0
-28 -130 202 64 154 94 172 100 172 118 190 124 190 0
-202 -28 -136 -64 -160 0
-202 -28 -136 -94 -178 0
-202 -28 -136 -100 -178 0
-202 -28 -136 -118 -196 0
-202 -28 -136 -124 -196 0
-28 -136 202 64 160 94 178 100 178 118 196 124 196 0
-202 -34 -130 -70 -154 0
-202 -34 -130 -100 -172 0
-202 -34 -130 -124 -190 0
-34 -130 202 70 154 100 172 124 190 0
-202 -34 -136 -70 -160 0
-202 -34 -136 -100 -178 0
-202 -34 -136 -124 -196 0
-34 -136 202 70 160 100 178 124 196 0
-208 -40 -148 -4 -136 0
-208 -40 -148 -76 -172 0
-208 -40 -148 -106 -190 0
-40 -148 208 4 136 76 172 106 190 0
-208 -40 -154 -4 -142 0
-208 -40 -154 -76 -178 0
-208 -40 -154 -106 -196 0
-40 -154 208 4 142 76 178 106 196 0
-208 -46 -148 -10 -136 0
-208 -46 -148 -76 -172 0
-208 -46 -148 -82 -172 0
-208 -46 -148 -106 -190 0
-208 -46 -148 -112 -190 0
-46 -148 208 10 136 76 172 82 172 106 190 112 190 0
-208 -46 -154 -10 -142 0
-208 -46 -154 -76 -178 0
-208 -46 -154 -82 -178 0
-208 -46 -154 -106 -196 0
-208 -46 -154 -112 -196 0
-46 -154 208 10 142 76 178 82 178 106 196 112 196 0
-208 -52 -148 -16 -136 0
-208 -52 -148 -82 -172 0
-208 -52 -148 -88 -172 0
-208 -52 -148 -106 -190 0
-208 -52 -148 -112 -190 0
-208 -52 -148 -118 -190 0
-52 -148 208 16 136 82 172 88 172 106 190 112 190 118 190 0
-208 -52 -154 -16 -142 0
-208 -52 -154 -82 -178 0
-208 -52 -154 -88 -178 0
-208 -52 -154 -106 -196 0
-208 -52 -154 -112 -196 0
-208 -52 -154 -118 -196 0
-52 -154 208 16 142 82 178 88 178 106 196 112 196 118 196 0
-208 -58 -148 -22 -136 0
-208 -58 -148 -88 -172 0
-208 -58 -148 -94 -172 0
-208 -58 -148 -112 -190 0
-208 -58 -148 -118 -190 0
-208 -58 -148 -124 -190 0
-58 -148 208 22 136 88 172 94 172 112 190 118 190 124 190 0
-208 -58 -154 -22 -142 0
-208 -58 -154 -88 -178 0
-208 -58 -154 -94 -178 0
-208 -58 -154 -112 -196 0
-208 -58 -154 -118 -196 0
-208 -58 -154 -124 -196 0
-58 -154 208 22 142 88 178 94 178 112 196 118 196 124 196 0
-208 -64 -148 -28 -136 0
-208 -64 -148 -94 -172 0
-208 -64 -148 -100 -172 0
-208 -64 -148 -118 -190 0
-208 -64 -148 -124 -190 0
-64 -148 208 28 136 94 172 100 172 118 190 124 190 0
-208 -64 -154 -28 -142 0
-208 -64 -154 -94 -178 0
-208 -64 -154 -100 -178 0
-208 -64 -154 -118 -196 0
-208 -64 -154 -124 -196 0
-64 -154 208 28 142 94 178 100 178 118 196 124 196 0
-208 -70 -148 -34 -136 0
-208 -70 -148 -100 -172 0
-208 -70 -148 -124 -190 0
-70 -148 208 34 136 100 172 124 190 0
-208 -70 -154 -34 -142 0
-208 -70 -154 -100 -178 0
-208 -70 -154 -124 -196 0
-70 -154 208 34 142 100 178 124 196 0
-214 -76 -166 -4 -136 0
-214 -76 -166 -10 -136 0
-214 -76 -166 -40 -154 0
-214 -76 -166 -46 -154 0
-214 -76 -166 -106 -190 0
-214 -76 -166 -112 -190 0
-76 -166 214 4 136 10 136 40 154 46 154 106 190 112 190 0
-214 -76 -172 -4 -142 0
-214 -76 -172 -10 -142 0
-214 -76 -172 -40 -160 0
-214 -76 -172 -46 -160 0
-214 -76 -172 -106 -196 0
-214 -76 -172 -112 -196 0
-76 -172 214 4 142 10 142 40 160 46 160 106 196 112 196 0
-214 -82 -166 -10 -136 0
-214 -82 -166 -16 -136 0
-214 -82 -166 -46 -154 0
-214 -82 -166 -52 -154 0
-214 -82 -166 -106 -190 0
-214 -82 -166 -112 -190 0
-214 -82 -166 -118 -190 0
-82 -166 214 10 136 16 136 46 154 52 154 106 190 112 190 118 190 0
-214 -82 -172 -10 -142 0
-214 -82 -172 -16 -142 0
-214 -82 -172 -46 -160 0
-214 -82 -172 -52 -160 0
-214 -82 -172 -106 -196 0
-214 -82 -172 -112 -196 0
-214 -82 -172 -118 -196 0
-82 -172 214 10 142 16 142 46 160 52 160 106 196 112 196 118 196 0
-214 -88 -166 -16 -136 0
-214 -88 -166 -22 -136 0
-214 -88 -166 -52 -154 0
-214 -88 -166 -58 -154 0
-214 -88 -166 -106 -190 0
-214 -88 -166 -112 -190 0
-214 -88 -166 -118 -190 0
-214 -88 -166 -124 -190 0
-88 -166 214 16 136 22 136 52 154 58 154 106 190 112 190 118 190 124 190 0
-214 -88 -172 -16 -142 0
-214 -88 -172 -22 -142 0
-214 -88 -172 -52 -160 0
-214 -88 -172 -58 -160 0
-214 -88 -172 -106 -196 0
-214 -88 -172 -112 -196 0
-214 -88 -172 -118 -196 0
-214 -88 -172 -124 -196 0
-88 -172 214 16 142 22 142 52 160 58 160 106 196 112 196 118 196 124 196 0
-214 -94 -166 -22 -136 0
-214 -94 -166 -28 -136 0
-214 -94 -166 -58 -154 0
-214 -94 -166 -64 -154 0
-214 -94 -166 -112 -190 0
-214 -94 -166 -118 -190 0
-214 -94 -166 -124 -190 0
-94 -166 214 22 136 28 136 58 154 64 154 112 190 118 190 124 190 0
-214 -94 -172 -22 -142 0
-214 -94 -172 -28 -142 0
-214 -94 -172 -58 -160 0
-214 -94 -172 -64 -160 0
-214 -94 -172 -112 -196 0
-214 -94 -172 -118 -196 0
-214 -94 -172 -124 -196 0
-94 -172 214 22 142 28 142 58 160 64 160 112 196 118 196 124 196 0
-214 -100 -166 -28 -136 0
-214 -100 -166 -34 -136 0
-214 -100 -166 -64 -154 0
-214 -100 -166 -70 -154 0
-214 -100 -166 -118 -190 0
-214 -100 -166 -124 -190 0
-100 -166 214 28 136 34 136 64 154 70 154 118 190 124 190 0
-214 -100 -172 -28 -142 0
-214 -100 -172 -34 -142 0
-214 -100 -172 -64 -160 0
-214 -100 -172 -70 -160 0
-214 -100 -172 -118 -196 0
-214 -100 -172 -124 -196 0
-100 -172 214 28 142 34 142 64 160 70 160 118 196 124 196 0
-220 -106 -184 -4 -136 0
-220 -106 -184 -10 -136 0
-220 -106 -184 -16 -136 0
-220 -106 -184 -40 -154 0
-220 -106 -184 -46 -154 0
-220 -106 -184 -52 -154 0
-220 -106 -184 -76 -172 0
-220 -106 -184 -82 -172 0
-220 -106 -184 -88 -172 0
-106 -184 220 4 136 10 136 16 136 40 154 46 154 52 154 76 172 82 172 88 172 0
-220 -106 -190 -4 -142 0
-220 -106 -190 -10 -142 0
-220 -106 -190 -16 -142 0
-220 -106 -190 -40 -160 0
-220 -106 -190 -46 -160 0
-220 -106 -190 -52 -160 0
-220 -106 -190 -76 -178 0
-220 -106 -190 -82 -178 0
-220 -106 -190 -88 -178 0
-106 -190 220 4 142 10 142 16 142 40 160 46 160 52 160 76 178 82 178 88 178 0
-220 -112 -184 -10 -136 0
-220 -112 -184 -16 -136 0
-220 -112 -184 -22 -136 0
-220 -112 -184 -46 -154 0
-220 -112 -184 -52 -154 0
-220 -112 -184 -58 -154 0
-220 -112 -184 -76 -172 0
-220 -112 -184 -82 -172 0
-220 -112 -184 -88 -172 0
-220 -112 -184 -94 -172 0
-112 -184 220 10 136 16 136 22 136 46 154 52 154 58 154 76 172 82 172 88 172 94 172 0
-220 -112 -190 -10 -142 0
-220 -112 -190 -16 -142 0
-220 -112 -190 -22 -142 0
-220 -112 -190 -46 -160 0
-220 -112 -190 -52 -160 0
-220 -112 -190 -58 -160 0
-220 -112 -190 -76 -178 0
-220 -112 -190 -82 -178 0
-220 -112 -190 -88 -178 0
-220 -112 -190 -94 -178 0
-112 -190 220 10 142 16 142 22 142 46 160 52 160 58 160 76 178 82 178 88 178 94 178 0
-220 -118 -184 -16 -136 0
-220 -118 -184 -22 -136 0
-220 -118 -184 -28 -136 0
-220 -118 -184 -52 -154 0
-220 -118 -184 -58 -154 0
-220 -118 -184 -64 -154 0
-220 -118 -184 -82 -172 0
-220 -118 -184 -88 -172 0
-220 -118 -184 -94 -172 0
-220 -118 -184 -100 -172 0
-118 -184 220 16 136 22 136 28 136 52 154 58 154 64 154 82 172 88 172 94 172 100 172 0
-220 -118 -190 -16 -142 0
-220 -118 -190 -22 -142 0
-220 -118 -190 -28 -142 0
-220 -118 -190 -52 -160 0
-220 -118 -190 -58 -160 0
-220 -118 -190 -64 -160 0
-220 -118 -190 -82 -178 0
-220 -118 -190 -88 -178 0
-220 -118 -190 -94 -178 0
-220 -118 -190 -100 -178 0
-118 -190 220 16 142 22 142 28 142 52 160 58 160 64 160 82 178 88 178 94 178 100 178 0
-220 -124 -184 -22 -136 0
-220 -124 -184 -28 -136 0
-220 -124 -184 -34 -136 0
-220 -124 -184 -58 -154 0
-220 -124 -184 -64 -154 0
-220 -124 -184 -70 -154 0
-220 -124 -184 -88 -172 0
-220 -124 -184 -94 -172 0
-220 -124 -184 -100 -172 0
-124 -184 220 22 136 28 136 34 136 58 154 64 154 70 154 88 172 94 172 100 172 0
-220 -124 -190 -22 -142 0
-220 -124 -190 -28 -142 0
-220 -124 -190 -34 -142 0
-220 -124 -190 -58 -160 0
-220 -124 -190 -64 -160 0
-220 -124 -190 -70 -160 0
-220 -124 -190 -88 -178 0
-220 -124 -190 -94 -178 0
-220 -124 -190 -100 -178 0
-124 -190 220 22 142 28 142 34 142 58 160 64 160 70 160 88 178 94 178 100 178 0
-203 -5 -131 -41 -155 0
-203 -5 -131 -77 -173 0
-203 -5 -131 -107 -191 0
-5 -131 203 41 155 77 173 107 191 0
-203 -5 -137 -41 -161 0
-203 -5 -137 -77 -179 0
-203 -5 -137 -107 -197 0
-5 -137 203 41 161 77 179 107 197 0
-203 -11 -131 -47 -155 0
-203 -11 -131 -77 -173 0
-203 -11 -131 -83 -173 0
-203 -11 -131 -107 -191 0
-203 -11 -131 -113 -191 0
-11 -131 203 47 155 77 173 83 173 107 191 113 191 0
-203 -11 -137 -47 -161 0
-203 -11 -137 -77 -179 0
-203 -11 -137 -83 -179 0
-203 -11 -137 -107 -197 0
-203 -11 -137 -113 -197 0
-11 -137 203 47 161 77 179 83 179 107 197 113 197 0
-203 -17 -131 -53 -155 0
-203 -17 -131 -83 -173 0
-203 -17 -131 -89 -173 0
-203 -17 -131 -107 -191 0
-203 -17 -131 -113 -191 0
-203 -17 -131 -119 -191 0
-17 -131 203 53 155 83 173 89 173 107 191 113 191 119 191 0
-203 -17 -137 -53 -161 0
-203 -17 -137 -83 -179 0
-203 -17 -137 -89 -179 0
-203 -17 -137 -107 -197 0
-203 -17 -137 -113 -197 0
-203 -17 -137 -119 -197 0
-17 -137 203 53 161 83 179 89 179 107 197 113 197 119 197 0
-203 -23 -131 -59 -155 0
-203 -23 -131 -89 -173 0
-203 -23 -131 -95 -173 0
-203 -23 -131 -113 -191 0
-203 -23 -131 -119 -191 0
-203 -23 -131 -125 -191 0
-23 -131 203 59 155 89 173 95 173 113 191 119 191 125 191 0
-203 -23 -137 -59 -161 0
-203 -23 -137 -89 -179 0
-203 -23 -137 -95 -179 0
-203 -23 -137 -113 -197 0
-203 -23 -137 -119 -197 0
-203 -23 -137 -125 -197 0
-23 -137 203 59 161 89 179 95 179 113 197 119 197 125 197 0
-203 -29 -131 -65 -155 0
-203 -29 -131 -95 -173 0
-203 -29 -131 -101 -173 0
-203 -29 -131 -119 -191 0
-203 -29 -131 -125 -191 0
-29 -131 203 65 155 95 173 101 173 119 191 125 191 0
-203 -29 -137 -65 -161 0
-203 -29 -137 -95 -179 0
-203 -29 -137 -101 -179 0
-203 -29 -137 -119 -197 0
-203 -29 -137 -125 -197 0
-29 -137 203 65 161 95 179 101 179 119 197 125 197 0
-203 -35 -131 -71 -155 0
-203 -35 -131 -101 -173 0
-203 -35 -131 -125 -191 0
-35 -131 203 71 155 101 173 125 191 0
-203 -35 -137 -71 -161 0
-203 -35 -137 -101 -179 0
-203 -35 -137 -125 -197 0
-35 -137 203 71 161 101 179 125 197 0
-209 -41 -149 -5 -137 0
-209 -41 -149 -77 -173 0
-209 -41 -149 -107 -191 0
-41 -149 209 5 137 77 173 107 191 0
-209 -41 -155 -5 -143 0
-209 -41 -155 -77 -179 0
-209 -41 -155 -107 -197 0
-41 -155 209 5 143 77 179 107 197 0
-209 -47 -149 -11 -137 0
-209 -47 -149 -77 -173 0
-209 -47 -149 -83 -173 0
-209 -47 -149 -107 -191 0
-209 -47 -149 -113 -191 0
-47 -149 209 11 137 77 173 83 173 107 191 113 191 0
-209 -47 -155 -11 -143 0
-209 -47 -155 -77 -179 0
-209 -47 -155 -83 -179 0
-209 -47 -155 -107 -197 0
-209 -47 -155 -113 -197 0
-47 -155 209 11 143 77 179 83 179 107 197 113 197 0
-209 -53 -149 -17 -137 0
-209 -53 -149 -83 -173 0
-209 -53 -149 -89 -173 0
-209 -53 -149 -107 -191 0
-209 -53 -149 -113 -191 0
-209 -53 -149 -119 -191 0
-53 -149 209 17 137 83 173 89 173 107 191 113 191 119 191 0
-209 -53 -155 -17 -143 0
-209 -53 -155 -83 -179 0
-209 -53 -155 -89 -179 0
-209 -53 -155 -107 -197 0
-209 -53 -155 -113 -197 0
-209 -53 -155 -119 -197 0
-53 -155 209 17 143 83 179 89 179 107 197 113 197 119 197 0
-209 -59 -149 -23 -137 0
-209 -59 -149 -89 -173 0
-209 -59 -149 -95 -173 0
-209 -59 -149 -113 -191 0
-209 -59 -149 -119 -191 0
-209 -59 -149 -125 -191 0
-59 -149 209 23 137 89 173 95 173 113 191 119 191 125 191 0
-209 -59 -155 -23 -143 0
-209 -59 -155 -89 -179 0
-209 -59 -155 -95 -179 0
-209 -59 -155 -113 -197 0
-209 -59 -155 -119 -197 0
-209 -59 -155 -125 -197 0
-59 -155 209 23 143 89 179 95 179 113 197 119 197 125 197 0
-209 -65 -149 -29 -137 0
-209 -65 -149 -95 -173 0
-209 -65 -149 -101 -173 0
-209 -65 -149 -119 -191 0
-209 -65 -149 -125 -191 0
-65 -149 209 29 137 95 173 101 173 119 191 125 191 0
-209 -65 -155 -29 -143 0
-209 -65 -155 -95 -179 0
-209 -65 -155 -101 -179 0
-209 -65 -155 -119 -197 0
-209 -65 -155 -125 -197 0
-65 -155 209 29 143 95 179 101 179 119 197 125 197 0
-209 -71 -149 -35 -137 0
-209 -71 -149 -101 -173 0
-209 -71 -149 -125 -191 0
-71 -149 209 35 137 101 173 125 191 0
-209 -71 -155 -35 -143 0
-209 -71 -155 -101 -179 0
-209 -71 -155 -125 -197 0
-71 -155 209 35 143 101 179 125 197 0
-215 -77 -167 -5 -137 0
-215 -77 -167 -11 -137 0
-215 -77 -167 -41 -155 0
-215 -77 -167 -47 -155 0
-215 -77 -167 -107 -191 0
-215 -77 -167 -113 -191 0
-77 -167 215 5 137 11 137 41 155 47 155 107 191 113 191 0
-215 -77 -173 -5 -143 0
-215 -77 -173 -11 -143 0
-215 -77 -173 -41 -161 0
-215 -77 -173 -47 -161 0
-215 -77 -173 -107 -197 0
-215 -77 -173 -113 -197 0
-77 -173 215 5 143 11 143 41 161 47 161 107 197 113 197 0
-215 -83 -167 -11 -137 0
-215 -83 -167 -17 -137 0
-215 -83 -167 -47 -155 0
-215 -83 -167 -53 -155 0
-215 -83 -167 -107 -191 0
-215 -83 -167 -113 -191 0
-215 -83 -167 -119 -191 0
-83 -167 215 11 137 17 137 47 155 53 155 107 191 113 191 119 191 0
-215 -83 -173 -11 -143 0
-215 -83 -173 -17 -143 0
-215 -83 -173 -47 -161 0
-215 -83 -173 -53 -161 0
-215 -83 -173 -107 -197 0
-215 -83 -173 -113 -197 0
-215 -83 -173 -119 -197 0
-83 -173 215 11 143 17 143 47 161 53 161 107 197 113 197 119 197 0
-215 -89 -167 -17 -137 0
-215 -89 -167 -23 -137 0
-215 -89 -167 -53 -155 0
-215 -89 -167 -59 -155 0
-215 -89 -167 -107 -191 0
-215 -89 -167 -113 -191 0
-215 -89 -167 -119 -191 0
-215 -89 -167 -125 -191 0
-89 -167 215 17 137 23 137 53 155 59 155 107 191 113 191 119 191 125 191 0
-215 -89 -173 -17 -143 0
-215 -89 -173 -23 -143 0
-215 -89 -173 -53 -161 0
-215 -89 -173 -59 -161 0
-215 -89 -173 -107 -197 0
-215 -89 -173 -113 -197 0
-215 -89 -173 -119 -197 0
-215 -89 -173 -125 -197 0
-89 -173 215 17 143 23 143 53 161 59 161 107 197 113 197 119 197 125 197 0
-215 -95 -167 -23 -137 0
-215 -95 -167 -29 -137 0
-215 -95 -167 -59 -155 0
-215 -95 -167 -65 -155 0
-215 -95 -167 -113 -191 0
-215 -95 -167 -119 -191 0
-215 -95 -167 -125 -191 0
-95 -167 215 23 137 29 137 59 155 65 155 113 191 119 191 125 191 0
-215 -95 -173 -23 -143 0
-215 -95 -173 -29 -143 0
-215 -95 -173 -59 -161 0
-215 -95 -173 -65 -161 0
-215 -95 -173 -113 -197 0
-215 -95 -173 -119 -197 0
-215 -95 -173 -125 -197 0
-95 -173 215 23 143 29 143 59 161 65 161 113 197 119 197 125 197 0
-215 -101 -167 -29 -137 0
-215 -101 -167 -35 -137 0
-215 -101 -167 -65 -155 0
-215 -101 -167 -71 -155 0
-215 -101 -167 -119 -191 0
-215 -101 -167 -125 -191 0
-101 -167 215 29 137 35 137 65 155 71 155 119 191 125 191 0
-215 -101 -173 -29 -143 0
-215 -101 -173 -35 -143 0
-215 -101 -173 -65 -161 0
-215 -101 -173 -71 -161 0
-215 -101 -173 -119 -197 0
-215 -101 -173 -125 -197 0
-101 -173 215 29 143 35 143 65 161 71 161 119 197 125 197 0
-221 -107 -185 -5 -137 0
-221 -107 -185 -11 -137 0
-221 -107 -185 -17 -137 0
-221 -107 -185 -41 -155 0
-221 -107 -185 -47 -155 0
-221 -107 -185 -53 -155 0
-221 -107 -185 -77 -173 0
-221 -107 -185 -83 -173 0
-221 -107 -185 -89 -173 0
-107 -185 221 5 137 11 137 17 137 41 155 47 155 53 155 77 173 83 173 89 173 0
-221 -107 -191 -5 -143 0
-221 -107 -191 -11 -143 0
-221 -107 -191 -17 -143 0
-221 -107 -191 -41 -161 0
-221 -107 -191 -47 -161 0
-221 -107 -191 -53 -161 0
-221 -107 -191 -77 -179 0
-221 -107 -191 -83 -179 0
-221 -107 -191 -89 -179 0
-107 -191 221 5 143 11 143 17 143 41 161 47 161 53 161 77 179 83 179 89 179 0
-221 -113 -185 -11 -137 0
-221 -113 -185 -17 -137 0
-221 -113 -185 -23 -137 0
-221 -113 -185 -47 -155 0
-221 -113 -185 -53 -155 0
-221 -113 -185 -59 -155 0
-221 -113 -185 -77 -173 0
-221 -113 -185 -83 -173 0
-221 -113 -185 -89 -173 0
-221 -113 -185 -95 -173 0
-113 -185 221 11 137 17 137 23 137 47 155 53 155 59 155 77 173 83 173 89 173 95 173 0
-221 -113 -191 -11 -143 0
-221 -113 -191 -17 -143 0
-221 -113 -191 -23 -143 0
-221 -113 -191 -47 -161 0
-221 -113 -191 -53 -161 0
-221 -113 -191 -59 -161 0
-221 -113 -191 -77 -179 0
-221 -113 -191 -83 -179 0
-221 -113 -191 -89 -179 0
-221 -113 -191 -95 -179 0
-113 -191 221 11 143 17 143 23 143 47 161 53 161 59 161 77 179 83 179 89 179 95 179 0
-221 -119 -185 -17 -137 0
-221 -119 -185 -23 -137 0
-221 -119 -185 -29 -137 0
-221 -119 -185 -53 -155 0
-221 -119 -185 -59 -155 0
-221 -119 -185 -65 -155 0
-221 -119 -185 -83 -173 0
-221 -119 -185 -89 -173 0
-221 -119 -185 -95 -173 0
-221 -119 -185 -101 -173 0
-119 -185 221 17 137 23 137 29 137 53 155 59 155 65 155 83 173 89 173 95 173 101 173 0
-221 -119 -191 -17 -143 0
-221 -119 -191 -23 -143 0
-221 -119 -191 -29 -143 0
-221 -119 -191 -53 -161 0
-221 -119 -191 -59 -161 0
-221 -119 -191 -65 -161 0
-221 -119 -191 -83 -179 0
-221 -119 -191 -89 -179 0
-221 -119 -191 -95 -179 0
-221 -119 -191 -101 -179 0
-119 -191 221 17 143 23 143 29 143 53 161 59 161 65 161 83 179 89 179 95 179 101 179 0
-221 -125 -185 -23 -137 0
-221 -125 -185 -29 -137 0
-221 -125 -185 -35 -137 0
-221 -125 -185 -59 -155 0
-221 -125 -185 -65 -155 0
-221 -125 -185 -71 -155 0
-221 -125 -185 -89 -173 0
-221 -125 -185 -95 -173 0
-221 -125 -185 -101 -173 0
-125 -185 221 23 137 29 137 35 137 59 155 65 155 71 155 89 173 95 173 101 173 0
-221 -125 -191 -23 -143 0
-221 -125 -191 -29 -143 0
-221 -125 -191 -35 -143 0
-221 -125 -191 -59 -161 0
-221 -125 -191 -65 -161 0
-221 -125 -191 -71 -161 0
-221 -125 -191 -89 -179 0
-221 -125 -191 -95 -179 0
-221 -125 -191 -101 -179 0
-125 -191 221 23 143 29 143 35 143 59 161 65 161 71 161 89 179 95 179 101 179 0
-204 -6 -132 -42 -156 0
-204 -6 -132 -78 -174 0
-204 -6 -132 -108 -192 0
-6 -132 204 42 156 78 174 108 192 0
-204 -6 -138 -42 -162 0
-204 -6 -138 -78 -180 0
-204 -6 -138 -108 -198 0
-6 -138 204 42 162 78 180 108 198 0
-204 -12 -132 -48 -156 0
-204 -12 -132 -78 -174 0
-204 -12 -132 -84 -174 0
-204 -12 -132 -108 -192 0
-204 -12 -132 -114 -192 0
-12 -132 204 48 156 78 174 84 174 108 192 114 192 0
-204 -12 -138 -48 -162 0
-204 -12 -138 -78 -180 0
-204 -12 -138 -84 -180 0
-204 -12 -138 -108 -198 0
-204 -12 -138 -114 -198 0
-12 -138 204 48 162 78 180 84 180 108 198 114 198 0
-204 -18 -132 -54 -156 0
-204 -18 -132 -84 -174 0
-204 -18 -132 -90 -174 0
-204 -18 -132 -108 -192 0
-204 -18 -132 -114 -192 0
-204 -18 -132 -120 -192 0
-18 -132 204 54 156 84 174 90 174 108 192 114 192 120 192 0
-204 -18 -138 -54 -162 0
-204 -18 -138 -84 -180 0
-204 -18 -138 -90 -180 0
-204 -18 -138 -108 -198 0
-204 -18 -138 -114 -198 0
-204 -18 -138 -120 -198 0
-18 -138 204 54 162 84 180 90 180 108 198 114 198 120 198 0
-204 -24 -132 -60 -156 0
-204 -24 -132 -90 -174 0
-204 -24 -132 -96 -174 0
-204 -24 -132 -114 -192 0
-204 -24 -132 -120 -192 0
-204 -24 -132 -126 -192 0
-24 -132 204 60 156 90 174 96 174 114 192 120 192 126 192 0
-204 -24 -138 -60 -162 0
-204 -24 -138 -90 -180 0
-204 -24 -138 -96 -180 0
-204 -24 -138 -114 -198 0
-204 -24 -138 -120 -198 0
-204 -24 -138 -126 -198 0
-24 -138 204 60 162 90 180 96 180 114 198 120 198 126 198 0
-204 -30 -132 -66 -156 0
-204 -30 -132 -96 -174 0
-204 -30 -132 -102 -174 0
-204 -30 -132 -120 -192 0
-204 -30 -132 -126 -192 0
-30 -132 204 66 156 96 174 102 174 120 192 126 192 0
-204 -30 -138 -66 -162 0
-204 -30 -138 -96 -180 0
-204 -30 -138 -102 -180 0
-204 -30 -138 -120 -198 0
-204 -30 -138 -126 -198 0
-30 -138 204 66 162 96 180 102 180 120 198 126 198 0
-204 -36 -132 -72 -156 0
-204 -36 -132 -102 -174 0
-204 -36 -132 -126 -192 0
-36 -132 204 72 156 102 174 126 192 0
-204 -36 -138 -72 -162 0
-204 -36 -138 -102 -180 0
-204 -36 -138 -126 -198 0
-36 -138 204 72 162 102 180 126 198 0
-210 -42 -150 -6 -138 0
-210 -42 -150 -78 -174 0
-210 -42 -150 -108 -192 0
-42 -150 210 6 138 78 174 108 192 0
-210 -42 -156 -6 -144 0
-210 -42 -156 -78 -180 0
-210 -42 -156 -108 -198 0
-42 -156 210 6 144 78 180 108 198 0
-210 -48 -150 -12 -138 0
-210 -48 -150 -78 -174 0
-210 -48 -150 -84 -174 0
-210 -48 -150 -108 -192 0
-210 -48 -150 -114 -192 0
-48 -150 210 12 138 78 174 84 174 108 192 114 192 0
-210 -48 -156 -12 -144 0
-210 -48 -156 -78 -180 0
-210 -48 -156 -84 -180 0
-210 -48 -156 -108 -198 0
-210 -48 -156 -114 -198 0
-48 -156 210 12 144 78 180 84 180 108 198 114 198 0
-210 -54 -150 -18 -138 0
-210 -54 -150 -84 -174 0
-210 -54 -150 -90 -174 0
-210 -54 -150 -108 -192 0
-210 -54 -150 -114 -192 0
-210 -54 -150 -120 -192 0
-54 -150 210 18 138 84 174 90 174 108 192 114 192 120 192 0
-210 -54 -156 -18 -144 0
-210 -54 -156 -84 -180 0
-210 -54 -156 -90 -180 0
-210 -54 -156 -108 -198 0
-210 -54 -156 -114 -198 0
-210 -54 -156 -120 -198 0
-54 -156 210 18 144 84 180 90 180 108 198 114 198 120 198 0
-210 -60 -150 -24 -138 0
-210 -60 -150 -90 -174 0
-210 -60 -150 -96 -174 0
-210 -60 -150 -114 -192 0
-210 -60 -150 -120 -192 0
-210 -60 -150 -126 -192 0
-60 -150 210 24 138 90 174 96 174 114 192 120 192 126 192 0
-210 -60 -156 -24 -144 0
-210 -60 -156 -90 -180 0
-210 -60 -156 -96 -180 0
-210 -60 -156 -114 -198 0
-210 -60 -156 -120 -198 0
-210 -60 -156 -126 -198 0
-60 -156 210 24 144 90 180 96 180 114 198 120 198 126 198 0
-210 -66 -150 -30 -138 0
-210 -66 -150 -96 -174 0
-210 -66 -150 -102 -174 0
-210 -66 -150 -120 -192 0
-210 -66 -150 -126 -192 0
-66 -150 210 30 138 96 174 102 174 120 192 126 192 0
-210 -66 -156 -30 -144 0
-210 -66 -156 -96 -180 0
-210 -66 -156 -102 -180 0
-210 -66 -156 -120 -198 0
-210 -66 -156 -126 -198 0
-66 -156 210 30 144 96 180 102 180 120 198 126 198 0
-210 -72 -150 -36 -138 0
-210 -72 -150 -102 -174 0
-210 -72 -150 -126 -192 0
-72 -150 210 36 138 102 174 126 192 0
-210 -72 -156 -36 -144 0
-210 -72 -156 -102 -180 0
-210 -72 -156 -126 -198 0
-72 -156 210 36 144 102 180 126 198 0
-216 -78 -168 -6 -138 0
-216 -78 -168 -12 -138 0
-216 -78 -168 -42 -156 0
-216 -78 -168 -48 -156 0
-216 -78 -168 -108 -192 0
-216 -78 -168 -114 -192 0
-78 -168 216 6 138 12 138 42 156 48 156 108 192 114 192 0
-216 -78 -174 -6 -144 0
-216 -78 -174 -12 -144 0
-216 -78 -174 -42 -162 0
-216 -78 -174 -48 -162 0
-216 -78 -174 -108 -198 0
-216 -78 -174 -114 -198 0
-78 -174 216 6 144 12 144 42 162 48 162 108 198 114 198 0
-216 -84 -168 -12 -138 0
-216 -84 -168 -18 -138 0
-216 -84 -168 -48 -156 0
-216 -84 -168 -54 -156 0
-216 -84 -168 -108 -192 0
-216 -84 -168 -114 -192 0
-216 -84 -168 -120 -192 0
-84 -168 216 12 138 18 138 48 156 54 156 108 192 114 192 120 192 0
-216 -84 -174 -12 -144 0
-216 -84 -174 -18 -144 0
-216 -84 -174 -48 -162 0
-216 -84 -174 -54 -162 0
-216 -84 -174 -108 -198 0
-216 -84 -174 -114 -198 0
-216 -84 -174 -120 -198 0
-84 -174 216 12 144 18 144 48 162 54 162 108 198 114 198 120 198 0
-216 -90 -168 -18 -138 0
-216 -90 -168 -24 -138 0
-216 -90 -168 -54 -156 0
-216 -90 -168 -60 -156 0
-216 -90 -168 -108 -192 0
-216 -90 -168 -114 -192 0
-216 -90 -168 -120 -192 0
-216 -90 -168 -126 -192 0
-90 -168 216 18 138 24 138 54 156 60 156 108 192 114 192 120 192 126 192 0
-216 -90 -174 -18 -144 0
-216 -90 -174 -24 -144 0
-216 -90 -174 -54 -162 0
-216 -90 -174 -60 -162 0
-216 -90 -174 -108 -198 0
-216 -90 -174 -114 -198 0
-216 -90 -174 -120 -198 0
-216 -90 -174 -126 -198 0
-90 -174 216 18 144 24 144 54 162 60 162 108 198 114 198 120 198 126 198 0
-216 -96 -168 -24 -138 0
-216 -96 -168 -30 -138 0
-216 -96 -168 -60 -156 0
-216 -96 -168 -66 -156 0
-216 -96 -168 -114 -192 0
-216 -96 -168 -120 -192 0
-216 -96 -168 -126 -192 0
-96 -168 216 24 138 30 138 60 156 66 156 114 192 120 192 126 192 0
-216 -96 -174 -24 -144 0
-216 -96 -174 -30 -144 0
-216 -96 -174 -60 -162 0
-216 -96 -174 -66 -162 0
-216 -96 -174 -114 -198 0
-216 -96 -174 -120 -198 0
-216 -96 -174 -126 -198 0
-96 -174 216 24 144 30 144 60 162 66 162 114 198 120 198 126 198 0
-216 -102 -168 -30 -138 0
-216 -102 -168 -36 -138 0
-216 -102 -168 -66 -156 0
-216 -102 -168 -72 -156 0
-216 -102 -168 -120 -192 0
-216 -102 -168 -126 -192 0
-102 -168 216 30 138 36 138 66 156 72 156 120 192 126 192 0
-216 -102 -174 -30 -144 0
-216 -102 -174 -36 -144 0
-216 -102 -174 -66 -162 0
-216 -102 -174 -72 -162 0
-216 -102 -174 -120 -198 0
-216 -102 -174 -126 -198 0
-102 -174 216 30 144 36 144 66 162 72 162 120 198 126 198 0
-222 -108 -186 -6 -138 0
-222 -108 -186 -12 -138 0
-222 -108 -186 -18 -138 0
-222 -108 -186 -42 -156 0
-222 -108 -186 -48 -156 0
-222 -108 -186 -54 -156 0
-222 -108 -186 -78 -174 0
-222 -108 -186 -84 -174 0
-222 -108 -186 -90 -174 0
-108 -186 222 6 138 12 138 18 138 42 156 48 156 54 156 78 174 84 174 90 174 0
-222 -108 -192 -6 -144 0
-222 -108 -192 -12 -144 0
-222 -108 -192 -18 -144 0
-222 -108 -192 -42 -162 0
-222 -108 -192 -48 -162 0
-222 -108 -192 -54 -162 0
-222 -108 -192 -78 -180 0
-222 -108 -192 -84 -180 0
-222 -108 -192 -90 -180 0
-108 -192 222 6 144 12 144 18 144 42 162 48 162 54 162 78 180 84 180 90 180 0
-222 -114 -186 -12 -138 0
-222 -114 -186 -18 -138 0
-222 -114 -186 -24 -138 0
-222 -114 -186 -48 -156 0
-222 -114 -186 -54 -156 0
-222 -114 -186 -60 -156 0
-222 -114 -186 -78 -174 0
-222 -114 -186 -84 -174 0
-222 -114 -186 -90 -174 0
-222 -114 -186 -96 -174 0
-114 -186 222 12 138 18 138 24 138 48 156 54 156 60 156 78 174 84 174 90 174 96 174 0
-222 -114 -192 -12 -144 0
-222 -114 -192 -18 -144 0
-222 -114 -192 -24 -144 0
-222 -114 -192 -48 -162 0
-222 -114 -192 -54 -162 0
-222 -114 -192 -60 -162 0
-222 -114 -192 -78 -180 0
-222 -114 -192 -84 -180 0
-222 -114 -192 -90 -180 0
-222 -114 -192 -96 -180 0
-114 -192 222 12 144 18 144 24 144 48 162 54 162 60 162 78 180 84 180 90 180 96 180 0
-222 -120 -186 -18 -138 0
-222 -120 -186 -24 -138 0
-222 -120 -186 -30 -138 0
-222 -120 -186 -54 -156 0
-222 -120 -186 -60 -156 0
-222 -120 -186 -66 -156 0
-222 -120 -186 -84 -174 0
-222 -120 -186 -90 -174 0
-222 -120 -186 -96 -174 0
-222 -120 -186 -102 -174 0
-120 -186 222 18 138 24 138 30 138 54 156 60 156 66 156 84 174 90 174 96 174 102 174 0
-222 -120 -192 -18 -144 0
-222 -120 -192 -24 -144 0
-222 -120 -192 -30 -144 0
-222 -120 -192 -54 -162 0
-222 -120 -192 -60 -162 0
-222 -120 -192 -66 -162 0
-222 -120 -192 -84 -180 0
-222 -120 -192 -90 -180 0
-222 -120 -192 -96 -180 0
-222 -120 -192 -102 -180 0
-120 -192 222 18 144 24 144 30 144 54 162 60 162 66 162 84 180 90 180 96 180 102 180 0
-222 -126 -186 -24 -138 0
-222 -126 -186 -30 -138 0
-222 -126 -186 -36 -138 0
-222 -126 -186 -60 -156 0
-222 -126 -186 -66 -156 0
-222 -126 -186 -72 -156 0
-222 -126 -186 -90 -174 0
-222 -126 -186 -96 -174 0
-222 -126 -186 -102 -174 0
-126 -186 222 24 138 30 138 36 138 60 156 66 156 72 156 90 174 96 174 102 174 0
-222 -126 -192 -24 -144 0
-222 -126 -192 -30 -144 0
-222 -126 -192 -36 -144 0
-222 -126 -192 -60 -162 0
-222 -126 -192 -66 -162 0
-222 -126 -192 -72 -162 0
-222 -126 -192 -90 -180 0
-222 -126 -192 -96 -180 0
-222 -126 -192 -102 -180 0
-126 -192 222 24 144 30 144 36 144 60 162 66 162 72 162 90 180 96 180 102 180 0
1 0
133 0
43 0
151 0
73 0
163 0
121 0
181 0
30 0
144 0
72 0
162 0
102 0
174 0
126 0
186 0
655 660 665 670 675 680 685 690 695 700 705 710 715 720 725 730 735 740 745 750 755 760 765 770 775 780 785 790 795 800 805 810 815 820 825 830 835 840 845 850 855 860 865 870 875 880 885 890 895 900 905 910 915 920 925 930 935 940 945 950 955 960 965 970 975 980 985 990 995 1000 1005 1010 1015 1020 1025 1030 1035 1040 1045 1050 1055 1060 1065 1070 0
-655 -660 0
-655 -665 0
-655 -670 0
-655 -675 0
-655 -680 0
-655 -685 0
-655 -690 0
-655 -695 0
-655 -700 0
-655 -705 0
-655 -710 0
-655 -715 0
-655 -720 0
-655 -725 0
-655 -730 0
-655 -735 0
-655 -740 0
-655 -745 0
-655 -750 0
-655 -755 0
-655 -760 0
-655 -765 0
-655 -770 0
-655 -775 0
-655 -780 0
-655 -785 0
-655 -790 0
-655 -795 0
-655 -800 0
-655 -805 0
-655 -810 0
-655 -815 0
-655 -820 0
-655 -825 0
-655 -830 0
-655 -835 0
-655 -840 0
-655 -845 0
-655 -850 0
-655 -855 0
-655 -860 0
-655 -865 0
-655 -870 0
-655 -875 0
-655 -880 0
-655 -885 0
-655 -890 0
-655 -895 0
-655 -900 0
-655 -905 0
-655 -910 0
-655 -915 0
-655 -920 0
-655 -925 0
-655 -930 0
-655 -935 0
-655 -940 0
-655 -945 0
-655 -950 0
-655 -955 0
-655 -960 0
-655 -965 0
-655 -970 0
-655 -975 0
-655 -980 0
-655 -985 0
-655 -990 0
-655 -995 0
-655 -1000 0
-655 -1005 0
-655 -1010 0
-655 -1015 0
-655 -1020 0
-655 -1025 0
-655 -1030 0
-655 -1035 0
-655 -1040 0
-655 -1045 0
-655 -1050 0
-655 -1055 0
-655 -1060 0
-655 -1065 0
-655 -1070 0
-660 -665 0
-660 -670 0
-660 -675 0
-660 -680 0
-660 -685 0
-660 -690 0
-660 -695 0
-660 -700 0
-660 -705 0
-660 -710 0
-660 -715 0
-660 -720 0
-660 -725 0
-660 -730 0
-660 -735 0
-660 -740 0
-660 -745 0
-660 -750 0
-660 -755 0
-660 -760 0
-660 -765 0
-660 -770 0
-660 -775 0
-660 -780 0
-660 -785 0
-660 -790 0
-660 -795 0
-660 -800 0
-660 -805 0
-660 -810 0
-660 -815 0
-660 -820 0
-660 -825 0
-660 -830 0
-660 -835 0
-660 -840 0
-660 -845 0
-660 -850 0
-660 -855 0
-660 -860 0
-660 -865 0
-660 -870 0
-660 -875 0
-660 -880 0
-660 -885 0
-660 -890 0
-660 -895 0
-660 -900 0
-660 -905 0
-660 -910 0
-660 -915 0
-660 -920 0
-660 -925 0
-660 -930 0
-660 -935 0
-660 -940 0
-660 -945 0
-660 -950 0
-660 -955 0
-660 -960 0
-660 -965 0
-660 -970 0
-660 -975 0
-660 -980 0
-660 -985 0
-660 -990 0
-660 -995 0
-660 -1000 0
-660 -1005 0
-660 -1010 0
-660 -1015 0
-660 -1020 0
-660 -1025 0
-660 -1030 0
-660 -1035 0
-660 -1040 0
-660 -1045 0
-660 -1050 0
-660 -1055 0
-660 -1060 0
-660 -1065 0
-660 -1070 0
-665 -670 0
-665 -675 0
-665 -680 0
-665 -685 0
-665 -690 0
-665 -695 0
-665 -700 0
-665 -705 0
-665 -710 0
-665 -715 0
-665 -720 0
-665 -725 0
-665 -730 0
-665 -735 0
-665 -740 0
-665 -745 0
-665 -750 0
-665 -755 0
-665 -760 0
-665 -765 0
-665 -770 0
-665 -775 0
-665 -780 0
-665 -785 0
-665 -790 0
-665 -795 0
-665 -800 0
-665 -805 0
-665 -810 0
-665 -815 0
-665 -820 0
-665 -825 0
-665 -830 0
-665 -835 0
-665 -840 0
-665 -845 0
-665 -850 0
-665 -855 0
-665 -860 0
-665 -865 0
-665 -870 0
-665 -875 0
-665 -880 0
-665 -885 0
-665 -890 0
-665 -895 0
-665 -900 0
-665 -905 0
-665 -910 0
-665 -915 0
-665 -920 0
-665 -925 0
-665 -930 0
-665 -935 0
-665 -940 0
-665 -945 0
-665 -950 0
-665 -955 0
-665 -960 0
-665 -965 0
-665 -970 0
-665 -975 0
-665 -980 0
-665 -985 0
-665 -990 0
-665 -995 0
-665 -1000 0
-665 -1005 0
-665 -1010 0
-665 -1015 0
-665 -1020 0
-665 -1025 0
-665 -1030 0
-665 -1035 0
-665 -1040 0
-665 -1045 0
-665 -1050 0
-665 -1055 0
-665 -1060 0
-665 -1065 0
-665 -1070 0
-670 -675 0
-670 -680 0
-670 -685 0
-670 -690 0
-670 -695 0
-670 -700 0
-670 -705 0
-670 -710 0
-670 -715 0
-670 -720 0
-670 -725 0
-670 -730 0
-670 -735 0
-670 -740 0
-670 -745 0
-670 -750 0
-670 -755 0
-670 -760 0
-670 -765 0
-670 -770 0
-670 -775 0
-670 -780 0
-670 -785 0
-670 -790 0
-670 -795 0
-670 -800 0
-670 -805 0
-670 -810 0
-670 -815 0
-670 -820 0
-670 -825 0
-670 -830 0
-670 -835 0
-670 -840 0
-670 -845 0
-670 -850 0
-670 -855 0
-670 -860 0
-670 -865 0
-670 -870 0
-670 -875 0
-670 -880 0
-670 -885 0
-670 -890 0
-670 -895 0
-670 -900 0
-670 -905 0
-670 -910 0
-670 -915 0
-670 -920 0
-670 -925 0
-670 -930 0
-670 -935 0
-670 -940 0
-670 -945 0
-670 -950 0
-670 -955 0
-670 -960 0
-670 -965 0
-670 -970 0
-670 -975 0
-670 -980 0
-670 -985 0
-670 -990 0
-670 -995 0
-670 -1000 0
-670 -1005 0
-670 -1010 0
-670 -1015 0
-670 -1020 0
-670 -1025 0
-670 -1030 0
-670 -1035 0
-670 -1040 0
-670 -1045 0
-670 -1050 0
-670 -1055 0
-670 -1060 0
-670 -1065 0
-670 -1070 0
-675 -680 0
-675 -685 0
-675 -690 0
-675 -695 0
-675 -700 0
-675 -705 0
-675 -710 0
-675 -715 0
-675 -720 0
-675 -725 0
-675 -730 0
-675 -735 0
-675 -740 0
-675 -745 0
-675 -750 0
-675 -755 0
-675 -760 0
-675 -765 0
-675 -770 0
-675 -775 0
-675 -780 0
-675 -785 0
-675 -790 0
-675 -795 0
-675 -800 0
-675 -805 0
-675 -810 0
-675 -815 0
-675 -820 0
-675 -825 0
-675 -830 0
-675 -835 0
-675 -840 0
-675 -845 0
-675 -850 0
-675 -855 0
-675 -860 0
-675 -865 0
-675 -870 0
-675 -875 0
-675 -880 0
-675 -885 0
-675 -890 0
-675 -895 0
-675 -900 0
-675 -905 0
-675 -910 0
-675 -915 0
-675 -920 0
-675 -925 0
-675 -930 0
-675 -935 0
-675 -940 0
-675 -945 0
-675 -950 0
-675 -955 0
-675 -960 0
-675 -965 0
-675 -970 0
-675 -975 0
-675 -980 0
-675 -985 0
-675 -990 0
-675 -995 0
-675 -1000 0
-675 -1005 0
-675 -1010 0
-675 -1015 0
-675 -1020 0
-675 -1025 0
-675 -1030 0
-675 -1035 0
-675 -1040 0
-675 -1045 0
-675 -1050 0
-675 -1055 0
-675 -1060 0
-675 -1065 0
-675 -1070 0
-680 -685 0
-680 -690 0
-680 -695 0
-680 -700 0
-680 -705 0
-680 -710 0
-680 -715 0
-680 -720 0
-680 -725 0
-680 -730 0
-680 -735 0
-680 -740 0
-680 -745 0
-680 -750 0
-680 -755 0
-680 -760 0
-680 -765 0
-680 -770 0
-680 -775 0
-680 -780 0
-680 -785 0
-680 -790 0
-680 -795 0
-680 -800 0
-680 -805 0
-680 -810 0
-680 -815 0
-680 -820 0
-680 -825 0
-680 -830 0
-680 -835 0
-680 -840 0
-680 -845 0
-680 -850 0
-680 -855 0
-680 -860 0
-680 -865 0
-680 -870 0
-680 -875 0
-680 -880 0
-680 -885 0
-680 -890 0
-680 -895 0
-680 -900 0
-680 -905 0
-680 -910 0
-680 -915 0
-680 -920 0
-680 -925 0
-680 -930 0
-680 -935 0
-680 -940 0
-680 -945 0
-680 -950 0
-680 -955 0
-680 -960 0
-680 -965 0
-680 -970 0
-680 -975 0
-680 -980 0
-680 -985 0
-680 -990 0
-680 -995 0
-680 -1000 0
-680 -1005 0
-680 -1010 0
-680 -1015 0
-680 -1020 0
-680 -1025 0
-680 -1030 0
-680 -1035 0
-680 -1040 0
-680 -1045 0
-680 -1050 0
-680 -1055 0
-680 -1060 0
-680 -1065 0
-680 -1070 0
-685 -690 0
-685 -695 0
-685 -700 0
-685 -705 0
-685 -710 0
-685 -715 0
-685 -720 0
-685 -725 0
-685 -730 0
-685 -735 0
-685 -740 0
-685 -745 0
-685 -750 0
-685 -755 0
-685 -760 0
-685 -765 0
-685 -770 0
-685 -775 0
-685 -780 0
-685 -785 0
-685 -790 0
-685 -795 0
-685 -800 0
-685 -805 0
-685 -810 0
-685 -815 0
-685 -820 0
-685 -825 0
-685 -830 0
-685 -835 0
-685 -840 0
-685 -845 0
-685 -850 0
-685 -855 0
-685 -860 0
-685 -865 0
-685 -870 0
-685 -875 0
-685 -880 0
-685 -885 0
-685 -890 0
-685 -895 0
-685 -900 0
-685 -905 0
-685 -910 0
-685 -915 0
-685 -920 0
-685 -925 0
-685 -930 0
-685 -935 0
-685 -940 0
-685 -945 0
-685 -950 0
-685 -955 0
-685 -960 0
-685 -965 0
-685 -970 0
-685 -975 0
-685 -980 0
-685 -985 0
-685 -990 0
-685 -995 0
-685 -1000 0
-685 -1005 0
-685 -1010 0
-685 -1015 0
-685 -1020 0
-685 -1025 0
-685 -1030 0
-685 -1035 0
-685 -1040 0
-685 -1045 0
-685 -1050 0
-685 -1055 0
-685 -1060 0
-685 -1065 0
-685 -1070 0
-690 -695 0
-690 -700 0
-690 -705 0
-690 -710 0
-690 -715 0
-690 -720 0
-690 -725 0
-690 -730 0
-690 -735 0
-690 -740 0
-690 -745 0
-690 -750 0
-690 -755 0
-690 -760 0
-690 -765 0
-690 -770 0
-690 -775 0
-690 -780 0
-690 -785 0
-690 -790 0
-690 -795 0
-690 -800 0
-690 -805 0
-690 -810 0
-690 -815 0
-690 -820 0
-690 -825 0
-690 -830 0
-690 -835 0
-690 -840 0
-690 -845 0
-690 -850 0
-690 -855 0
-690 -860 0
-690 -865 0
-690 -870 0
-690 -875 0
-690 -880 0
-690 -885 0
-690 -890 0
-690 -895 0
-690 -900 0
-690 -905 0
-690 -910 0
-690 -915 0
-690 -920 0
-690 -925 0
-690 -930 0
-690 -935 0
-690 -940 0
-690 -945 0
-690 -950 0
-690 -955 0
-690 -960 0
-690 -965 0
-690 -970 0
-690 -975 0
-690 -980 0
-690 -985 0
-690 -990 0
-690 -995 0
-690 -1000 0
-690 -1005 0
-690 -1010 0
-690 -1015 0
-690 -1020 0
-690 -1025 0
-690 -1030 0
-690 -1035 0
-690 -1040 0
-690 -1045 0
-690 -1050 0
-690 -1055 0
-690 -1060 0
-690 -1065 0
-690 -1070 0
-695 -700 0
-695 -705 0
-695 -710 0
-695 -715 0
-695 -720 0
-695 -725 0
-695 -730 0
-695 -735 0
-695 -740 0
-695 -745 0
-695 -750 0
-695 -755 0
-695 -760 0
-695 -765 0
-695 -770 0
-695 -775 0
-695 -780 0
-695 -785 0
-695 -790 0
-695 -795 0
-695 -800 0
-695 -805 0
-695 -810 0
-695 -815 0
-695 -820 0
-695 -825 0
-695 -830 0
-695 -835 0
-695 -840 0
-695 -845 0
-695 -850 0
-695 -855 0
-695 -860 0
-695 -865 0
-695 -870 0
-695 -875 0
-695 -880 0
-695 -885 0
-695 -890 0
-695 -895 0
-695 -900 0
-695 -905 0
-695 -910 0
-695 -915 0
-695 -920 0
-695 -925 0
-695 -930 0
-695 -935 0
-695 -940 0
-695 -945 0
-695 -950 0
-695 -955 0
-695 -960 0
-695 -965 0
-695 -970 0
-695 -975 0
-695 -980 0
-695 -985 0
-695 -990 0
-695 -995 0
-695 -1000 0
-695 -1005 0
-695 -1010 0
-695 -1015 0
-695 -1020 0
-695 -1025 0
-695 -1030 0
-695 -1035 0
-695 -1040 0
-695 -1045 0
-695 -1050 0
-695 -1055 0
-695 -1060 0
-695 -1065 0
-695 -1070 0
-700 -705 0
-700 -710 0
-700 -715 0
-700 -720 0
-700 -725 0
-700 -730 0
-700 -735 0
-700 -740 0
-700 -745 0
-700 -750 0
-700 -755 0
-700 -760 0
-700 -765 0
-700 -770 0
-700 -775 0
-700 -780 0
-700 -785 0
-700 -790 0
-700 -795 0
-700 -800 0
-700 -805 0
-700 -810 0
-700 -815 0
-700 -820 0
-700 -825 0
-700 -830 0
-700 -835 0
-700 -840 0
-700 -845 0
-700 -850 0
-700 -855 0
-700 -860 0
-700 -865 0
-700 -870 0
-700 -875 0
-700 -880 0
-700 -885 0
-700 -890 0
-700 -895 0
-700 -900 0
-700 -905 0
-700 -910 0
-700 -915 0
-700 -920 0
-700 -925 0
-700 -930 0
-700 -935 0
-700 -940 0
-700 -945 0
-700 -950 0
-700 -955 0
-700 -960 0
-700 -965 0
-700 -970 0
-700 -975 0
-700 -980 0
-700 -985 0
-700 -990 0
-700 -995 0
-700 -1000 0
-700 -1005 0
-700 -1010 0
-700 -1015 0
-700 -1020 0
-700 -1025 0
-700 -1030 0
-700 -1035 0
-700 -1040 0
-700 -1045 0
-700 -1050 0
-700 -1055 0
-700 -1060 0
-700 -1065 0
-700 -1070 0
-705 -710 0
-705 -715 0
-705 -720 0
-705 -725 0
-705 -730 0
-705 -735 0
-705 -740 0
-705 -745 0
-705 -750 0
-705 -755 0
-705 -760 0
-705 -765 0
-705 -770 0
-705 -775 0
-705 -780 0
-705 -785 0
-705 -790 0
-705 -795 0
-705 -800 0
-705 -805 0
-705 -810 0
-705 -815 0
-705 -820 0
-705 -825 0
-705 -830 0
-705 -835 0
-705 -840 0
-705 -845 0
-705 -850 0
-705 -855 0
-705 -860 0
-705 -865 0
-705 -870 0
-705 -875 0
-705 -880 0
-705 -885 0
-705 -890 0
-705 -895 0
-705 -900 0
-705 -905 0
-705 -910 0
-705 -915 0
-705 -920 0
-705 -925 0
-705 -930 0
-705 -935 0
-705 -940 0
-705 -945 0
-705 -950 0
-705 -955 0
-705 -960 0
-705 -965 0
-705 -970 0
-705 -975 0
-705 -980 0
-705 -985 0
-705 -990 0
-705 -995 0
-705 -1000 0
-705 -1005 0
-705 -1010 0
-705 -1015 0
-705 -1020 0
-705 -1025 0
-705 -1030 0
-705 -1035 0
-705 -1040 0
-705 -1045 0
-705 -1050 0
-705 -1055 0
-705 -1060 0
-705 -1065 0
-705 -1070 0
-710 -715 0
-710 -720 0
-710 -725 0
-710 -730 0
-710 -735 0
-710 -740 0
-710 -745 0
-710 -750 0
-710 -755 0
-710 -760 0
-710 -765 0
-710 -770 0
-710 -775 0
-710 -780 0
-710 -785 0
-710 -790 0
-710 -795 0
-710 -800 0
-710 -805 0
-710 -810 0
-710 -815 0
-710 -820 0
-710 -825 0
-710 -830 0
-710 -835 0
-710 -840 0
-710 -845 0
-710 -850 0
-710 -855 0
-710 -860 0
-710 -865 0
-710 -870 0
-710 -875 0
-710 -880 0
-710 -885 0
-710 -890 0
-710 -895 0
-710 -900 0
-710 -905 0
-710 -910 0
-710 -915 0
-710 -920 0
-710 -925 0
-710 -930 0
-710 -935 0
-710 -940 0
-710 -945 0
-710 -950 0
-710 -955 0
-710 -960 0
-710 -965 0
-710 -970 0
-710 -975 0
-710 -980 0
-710 -985 0
-710 -990 0
-710 -995 0
-710 -1000 0
-710 -1005 0
-710 -1010 0
-710 -1015 0
-710 -1020 0
-710 -1025 0
-710 -1030 0
-710 -1035 0
-710 -1040 0
-710 -1045 0
-710 -1050 0
-710 -1055 0
-710 -1060 0
-710 -1065 0
-710 -1070 0
-715 -720 0
-715 -725 0
-715 -730 0
-715 -735 0
-715 -740 0
-715 -745 0
-715 -750 0
-715 -755 0
-715 -760 0
-715 -765 0
-715 -770 0
-715 -775 0
-715 -780 0
-715 -785 0
-715 -790 0
-715 -795 0
-715 -800 0
-715 -805 0
-715 -810 0
-715 -815 0
-715 -820 0
-715 -825 0
-715 -830 0
-715 -835 0
-715 -840 0
-715 -845 0
-715 -850 0
-715 -855 0
-715 -860 0
-715 -865 0
-715 -870 0
-715 -875 0
-715 -880 0
-715 -885 0
-715 -890 0
-715 -895 0
-715 -900 0
-715 -905 0
-715 -910 0
-715 -915 0
-715 -920 0
-715 -925 0
-715 -930 0
-715 -935 0
-715 -940 0
-715 -945 0
-715 -950 0
-715 -955 0
-715 -960 0
-715 -965 0
-715 -970 0
-715 -975 0
-715 -980 0
-715 -985 0
-715 -990 0
-715 -995 0
-715 -1000 0
-715 -1005 0
-715 -1010 0
-715 -1015 0
-715 -1020 0
-715 -1025 0
-715 -1030 0
-715 -1035 0
-715 -1040 0
-715 -1045 0
-715 -1050 0
-715 -1055 0
-715 -1060 0
-715 -1065 0
-715 -1070 0
-720 -725 0
-720 -730 0
-720 -735 0
-720 -740 0
-720 -745 0
-720 -750 0
-720 -755 0
-720 -760 0
-720 -765 0
-720 -770 0
-720 -775 0
-720 -780 0
-720 -785 0
-720 -790 0
-720 -795 0
-720 -800 0
-720 -805 0
-720 -810 0
-720 -815 0
-720 -820 0
-720 -825 0
-720 -830 0
-720 -835 0
-720 -840 0
-720 -845 0
-720 -850 0
-720 -855 0
-720 -860 0
-720 -865 0
-720 -870 0
-720 -875 0
-720 -880 0
-720 -885 0
-720 -890 0
-720 -895 0
-720 -900 0
-720 -905 0
-720 -910 0
-720 -915 0
-720 -920 0
-720 -925 0
-720 -930 0
-720 -935 0
-720 -940 0
-720 -945 0
-720 -950 0
-720 -955 0
-720 -960 0
-720 -965 0
-720 -970 0
-720 -975 0
-720 -980 0
-720 -985 0
-720 -990 0
-720 -995 0
-720 -1000 0
-720 -1005 0
-720 -1010 0
-720 -1015 0
-720 -1020 0
-720 -1025 0
-720 -1030 0
-720 -1035 0
-720 -1040 0
-720 -1045 0
-720 -1050 0
-720 -1055 0
-720 -1060 0
-720 -1065 0
-720 -1070 0
-725 -730 0
-725 -735 0
-725 -740 0
-725 -745 0
-725 -750 0
-725 -755 0
-725 -760 0
-725 -765 0
-725 -770 0
-725 -775 0
-725 -780 0
-725 -785 0
-725 -790 0
-725 -795 0
-725 -800 0
-725 -805 0
-725 -810 0
-725 -815 0
-725 -820 0
-725 -825 0
-725 -830 0
-725 -835 0
-725 -840 0
-725 -845 0
-725 -850 0
-725 -855 0
-725 -860 0
-725 -865 0
-725 -870 0
-725 -875 0
-725 -880 0
-725 -885 0
-725 -890 0
-725 -895 0
-725 -900 0
-725 -905 0
-725 -910 0
-725 -915 0
-725 -920 0
-725 -925 0
-725 -930 0
-725 -935 0
-725 -940 0
-725 -945 0
-725 -950 0
-725 -955 0
-725 -960 0
-725 -965 0
-725 -970 0
-725 -975 0
-725 -980 0
-725 -985 0
-725 -990 0
-725 -995 0
-725 -1000 0
-725 -1005 0
-725 -1010 0
-725 -1015 0
-725 -1020 0
-725 -1025 0
-725 -1030 0
-725 -1035 0
-725 -1040 0
-725 -1045 0
-725 -1050 0
-725 -1055 0
-725 -1060 0
-725 -1065 0
-725 -1070 0
-730 -735 0
-730 -740 0
-730 -745 0
-730 -750 0
-730 -755 0
-730 -760 0
-730 -765 0
-730 -770 0
-730 -775 0
-730 -780 0
-730 -785 0
-730 -790 0
-730 -795 0
-730 -800 0
-730 -805 0
-730 -810 0
-730 -815 0
-730 -820 0
-730 -825 0
-730 -830 0
-730 -835 0
-730 -840 0
-730 -845 0
-730 -850 0
-730 -855 0
-730 -860 0
-730 -865 0
-730 -870 0
-730 -875 0
-730 -880 0
-730 -885 0
-730 -890 0
-730 -895 0
-730 -900 0
-730 -905 0
-730 -910 0
-730 -915 0
-730 -920 0
-730 -925 0
-730 -930 0
-730 -935 0
-730 -940 0
-730 -945 0
-730 -950 0
-730 -955 0
-730 -960 0
-730 -965 0
-730 -970 0
-730 -975 0
-730 -980 0
-730 -985 0
-730 -990 0
-730 -995 0
-730 -1000 0
-730 -1005 0
-730 -1010 0
-730 -1015 0
-730 -1020 0
-730 -1025 0
-730 -1030 0
-730 -1035 0
-730 -1040 0
-730 -1045 0
-730 -1050 0
-730 -1055 0
-730 -1060 0
-730 -1065 0
-730 -1070 0
-735 -740 0
-735 -745 0
-735 -750 0
-735 -755 0
-735 -760 0
-735 -765 0
-735 -770 0
-735 -775 0
-735 -780 0
-735 -785 0
-735 -790 0
-735 -795 0
-735 -800 0
-735 -805 0
-735 -810 0
-735 -815 0
-735 -820 0
-735 -825 0
-735 -830 0
-735 -835 0
-735 -840 0
-735 -845 0
-735 -850 0
-735 -855 0
-735 -860 0
-735 -865 0
-735 -870 0
-735 -875 0
-735 -880 0
-735 -885 0
-735 -890 0
-735 -895 0
-735 -900 0
-735 -905 0
-735 -910 0
-735 -915 0
-735 -920 0
-735 -925 0
-735 -930 0
-735 -935 0
-735 -940 0
-735 -945 0
-735 -950 0
-735 -955 0
-735 -960 0
-735 -965 0
-735 -970 0
-735 -975 0
-735 -980 0
-735 -985 0
-735 -990 0
-735 -995 0
-735 -1000 0
-735 -1005 0
-735 -1010 0
-735 -1015 0
-735 -1020 0
-735 -1025 0
-735 -1030 0
-735 -1035 0
-735 -1040 0
-735 -1045 0
-735 -1050 0
-735 -1055 0
-735 -1060 0
-735 -1065 0
-735 -1070 0
-740 -745 0
-740 -750 0
-740 -755 0
-740 -760 0
-740 -765 0
-740 -770 0
-740 -775 0
-740 -780 0
-740 -785 0
-740 -790 0
-740 -795 0
-740 -800 0
-740 -805 0
-740 -810 0
-740 -815 0
-740 -820 0
-740 -825 0
-740 -830 0
-740 -835 0
-740 -840 0
-740 -845 0
-740 -850 0
-740 -855 0
-740 -860 0
-740 -865 0
-740 -870 0
-740 -875 0
-740 -880 0
-740 -885 0
-740 -890 0
-740 -895 0
-740 -900 0
-740 -905 0
-740 -910 0
-740 -915 0
-740 -920 0
-740 -925 0
-740 -930 0
-740 -935 0
-740 -940 0
-740 -945 0
-740 -950 0
-740 -955 0
-740 -960 0
-740 -965 0
-740 -970 0
-740 -975 0
-740 -980 0
-740 -985 0
-740 -990 0
-740 -995 0
-740 -1000 0
-740 -1005 0
-740 -1010 0
-740 -1015 0
-740 -1020 0
-740 -1025 0
-740 -1030 0
-740 -1035 0
-740 -1040 0
-740 -1045 0
-740 -1050 0
-740 -1055 0
-740 -1060 0
-740 -1065 0
-740 -1070 0
-745 -750 0
-745 -755 0
-745 -760 0
-745 -765 0
-745 -770 0
-745 -775 0
-745 -780 0
-745 -785 0
-745 -790 0
-745 -795 0
-745 -800 0
-745 -805 0
-745 -810 0
-745 -815 0
-745 -820 0
-745 -825 0
-745 -830 0
-745 -835 0
-745 -840 0
-745 -845 0
-745 -850 0
-745 -855 0
-745 -860 0
-745 -865 0
-745 -870 0
-745 -875 0
-745 -880 0
-745 -885 0
-745 -890 0
-745 -895 0
-745 -900 0
-745 -905 0
-745 -910 0
-745 -915 0
-745 -920 0
-745 -925 0
-745 -930 0
-745 -935 0
-745 -940 0
-745 -945 0
-745 -950 0
-745 -955 0
-745 -960 0
-745 -965 0
-745 -970 0
-745 -975 0
-745 -980 0
-745 -985 0
-745 -990 0
-745 -995 0
-745 -1000 0
-745 -1005 0
-745 -1010 0
-745 -1015 0
-745 -1020 0
-745 -1025 0
-745 -1030 0
-745 -1035 0
-745 -1040 0
-745 -1045 0
-745 -1050 0
-745 -1055 0
-745 -1060 0
-745 -1065 0
-745 -1070 0
-750 -755 0
-750 -760 0
-750 -765 0
-750 -770 0
-750 -775 0
-750 -780 0
-750 -785 0
-750 -790 0
-750 -795 0
-750 -800 0
-750 -805 0
-750 -810 0
-750 -815 0
-750 -820 0
-750 -825 0
-750 -830 0
-750 -835 0
-750 -840 0
-750 -845 0
-750 -850 0
-750 -855 0
-750 -860 0
-750 -865 0
-750 -870 0
-750 -875 0
-750 -880 0
-750 -885 0
-750 -890 0
-750 -895 0
-750 -900 0
-750 -905 0
-750 -910 0
-750 -915 0
-750 -920 0
-750 -925 0
-750 -930 0
-750 -935 0
-750 -940 0
-750 -945 0
-750 -950 0
-750 -955 0
-750 -960 0
-750 -965 0
-750 -970 0
-750 -975 0
-750 -980 0
-750 -985 0
-750 -990 0
-750 -995 0
-750 -1000 0
-750 -1005 0
-750 -1010 0
-750 -1015 0
-750 -1020 0
-750 -1025 0
-750 -1030 0
-750 -1035 0
-750 -1040 0
-750 -1045 0
-750 -1050 0
-750 -1055 0
-750 -1060 0
-750 -1065 0
-750 -1070 0
-755 -760 0
-755 -765 0
-755 -770 0
-755 -775 0
-755 -780 0
-755 -785 0
-755 -790 0
-755 -795 0
-755 -800 0
-755 -805 0
-755 -810 0
-755 -815 0
-755 -820 0
-755 -825 0
-755 -830 0
-755 -835 0
-755 -840 0
-755 -845 0
-755 -850 0
-755 -855 0
-755 -860 0
-755 -865 0
-755 -870 0
-755 -875 0
-755 -880 0
-755 -885 0
-755 -890 0
-755 -895 0
-755 -900 0
-755 -905 0
-755 -910 0
-755 -915 0
-755 -920 0
-755 -925 0
-755 -930 0
-755 -935 0
-755 -940 0
-755 -945 0
-755 -950 0
-755 -955 0
-755 -960 0
-755 -965 0
-755 -970 0
-755 -975 0
-755 -980 0
-755 -985 0
-755 -990 0
-755 -995 0
-755 -1000 0
-755 -1005 0
-755 -1010 0
-755 -1015 0
-755 -1020 0
-755 -1025 0
-755 -1030 0
-755 -1035 0
-755 -1040 0
-755 -1045 0
-755 -1050 0
-755 -1055 0
-755 -1060 0
-755 -1065 0
-755 -1070 0
-760 -765 0
-760 -770 0
-760 -775 0
-760 -780 0
-760 -785 0
-760 -790 0
-760 -795 0
-760 -800 0
-760 -805 0
-760 -810 0
-760 -815 0
-760 -820 0
-760 -825 0
-760 -830 0
-760 -835 0
-760 -840 0
-760 -845 0
-760 -850 0
-760 -855 0
-760 -860 0
-760 -865 0
-760 -870 0
-760 -875 0
-760 -880 0
-760 -885 0
-760 -890 0
-760 -895 0
-760 -900 0
-760 -905 0
-760 -910 0
-760 -915 0
-760 -920 0
-760 -925 0
-760 -930 0
-760 -935 0
-760 -940 0
-760 -945 0
-760 -950 0
-760 -955 0
-760 -960 0
-760 -965 0
-760 -970 0
-760 -975 0
-760 -980 0
-760 -985 0
-760 -990 0
-760 -995 0
-760 -1000 0
-760 -1005 0
-760 -1010 0
-760 -1015 0
-760 -1020 0
-760 -1025 0
-760 -1030 0
-760 -1035 0
-760 -1040 0
-760 -1045 0
-760 -1050 0
-760 -1055 0
-760 -1060 0
-760 -1065 0
-760 -1070 0
-765 -770 0
-765 -775 0
-765 -780 0
-765 -785 0
-765 -790 0
-765 -795 0
-765 -800 0
-765 -805 0
-765 -810 0
-765 -815 0
-765 -820 0
-765 -825 0
-765 -830 0
-765 -835 0
-765 -840 0
-765 -845 0
-765 -850 0
-765 -855 0
-765 -860 0
-765 -865 0
-765 -870 0
-765 -875 0
-765 -880 0
-765 -885 0
-765 -890 0
-765 -895 0
-765 -900 0
-765 -905 0
-765 -910 0
-765 -915 0
-765 -920 0
-765 -925 0
-765 -930 0
-765 -935 0
-765 -940 0
-765 -945 0
-765 -950 0
-765 -955 0
-765 -960 0
-765 -965 0
-765 -970 0
-765 -975 0
-765 -980 0
-765 -985 0
-765 -990 0
-765 -995 0
-765 -1000 0
-765 -1005 0
-765 -1010 0
-765 -1015 0
-765 -1020 0
-765 -1025 0
-765 -1030 0
-765 -1035 0
-765 -1040 0
-765 -1045 0
-765 -1050 0
-765 -1055 0
-765 -1060 0
-765 -1065 0
-765 -1070 0
-770 -775 0
-770 -780 0
-770 -785 0
-770 -790 0
-770 -795 0
-770 -800 0
-770 -805 0
-770 -810 0
-770 -815 0
-770 -820 0
-770 -825 0
-770 -830 0
-770 -835 0
-770 -840 0
-770 -845 0
-770 -850 0
-770 -855 0
-770 -860 0
-770 -865 0
-770 -870 0
-770 -875 0
-770 -880 0
-770 -885 0
-770 -890 0
-770 -895 0
-770 -900 0
-770 -905 0
-770 -910 0
-770 -915 0
-770 -920 0
-770 -925 0
-770 -930 0
-770 -935 0
-770 -940 0
-770 -945 0
-770 -950 0
-770 -955 0
-770 -960 0
-770 -965 0
-770 -970 0
-770 -975 0
-770 -980 0
-770 -985 0
-770 -990 0
-770 -995 0
-770 -1000 0
-770 -1005 0
-770 -1010 0
-770 -1015 0
-770 -1020 0
-770 -1025 0
-770 -1030 0
-770 -1035 0
-770 -1040 0
-770 -1045 0
-770 -1050 0
-770 -1055 0
-770 -1060 0
-770 -1065 0
-770 -1070 0
-775 -780 0
-775 -785 0
-775 -790 0
-775 -795 0
-775 -800 0
-775 -805 0
-775 -810 0
-775 -815 0
-775 -820 0
-775 -825 0
-775 -830 0
-775 -835 0
-775 -840 0
-775 -845 0
-775 -850 0
-775 -855 0
-775 -860 0
-775 -865 0
-775 -870 0
-775 -875 0
-775 -880 0
-775 -885 0
-775 -890 0
-775 -895 0
-775 -900 0
-775 -905 0
-775 -910 0
-775 -915 0
-775 -920 0
-775 -925 0
-775 -930 0
-775 -935 0
-775 -940 0
-775 -945 0
-775 -950 0
-775 -955 0
-775 -960 0
-775 -965 0
-775 -970 0
-775 -975 0
-775 -980 0
-775 -985 0
-775 -990 0
-775 -995 0
-775 -1000 0
-775 -1005 0
-775 -1010 0
-775 -1015 0
-775 -1020 0
-775 -1025 0
-775 -1030 0
-775 -1035 0
-775 -1040 0
-775 -1045 0
-775 -1050 0
-775 -1055 0
-775 -1060 0
-775 -1065 0
-775 -1070 0
-780 -785 0
-780 -790 0
-780 -795 0
-780 -800 0
-780 -805 0
-780 -810 0
-780 -815 0
-780 -820 0
-780 -825 0
-780 -830 0
-780 -835 0
-780 -840 0
-780 -845 0
-780 -850 0
-780 -855 0
-780 -860 0
-780 -865 0
-780 -870 0
-780 -875 0
-780 -880 0
-780 -885 0
-780 -890 0
-780 -895 0
-780 -900 0
-780 -905 0
-780 -910 0
-780 -915 0
-780 -920 0
-780 -925 0
-780 -930 0
-780 -935 0
-780 -940 0
-780 -945 0
-780 -950 0
-780 -955 0
-780 -960 0
-780 -965 0
-780 -970 0
-780 -975 0
-780 -980 0
-780 -985 0
-780 -990 0
-780 -995 0
-780 -1000 0
-780 -1005 0
-780 -1010 0
-780 -1015 0
-780 -1020 0
-780 -1025 0
-780 -1030 0
-780 -1035 0
-780 -1040 0
-780 -1045 0
-780 -1050 0
-780 -1055 0
-780 -1060 0
-780 -1065 0
-780 -1070 0
-785 -790 0
-785 -795 0
-785 -800 0
-785 -805 0
-785 -810 0
-785 -815 0
-785 -820 0
-785 -825 0
-785 -830 0
-785 -835 0
-785 -840 0
-785 -845 0
-785 -850 0
-785 -855 0
-785 -860 0
-785 -865 0
-785 -870 0
-785 -875 0
-785 -880 0
-785 -885 0
-785 -890 0
-785 -895 0
-785 -900 0
-785 -905 0
-785 -910 0
-785 -915 0
-785 -920 0
-785 -925 0
-785 -930 0
-785 -935 0
-785 -940 0
-785 -945 0
-785 -950 0
-785 -955 0
-785 -960 0
-785 -965 0
-785 -970 0
-785 -975 0
-785 -980 0
-785 -985 0
-785 -990 0
-785 -995 0
-785 -1000 0
-785 -1005 0
-785 -1010 0
-785 -1015 0
-785 -1020 0
-785 -1025 0
-785 -1030 0
-785 -1035 0
-785 -1040 0
-785 -1045 0
-785 -1050 0
-785 -1055 0
-785 -1060 0
-785 -1065 0
-785 -1070 0
-790 -795 0
-790 -800 0
-790 -805 0
-790 -810 0
-790 -815 0
-790 -820 0
-790 -825 0
-790 -830 0
-790 -835 0
-790 -840 0
-790 -845 0
-790 -850 0
-790 -855 0
-790 -860 0
-790 -865 0
-790 -870 0
-790 -875 0
-790 -880 0
-790 -885 0
-790 -890 0
-790 -895 0
-790 -900 0
-790 -905 0
-790 -910 0
-790 -915 0
-790 -920 0
-790 -925 0
-790 -930 0
-790 -935 0
-790 -940 0
-790 -945 0
-790 -950 0
-790 -955 0
-790 -960 0
-790 -965 0
-790 -970 0
-790 -975 0
-790 -980 0
-790 -985 0
-790 -990 0
-790 -995 0
-790 -1000 0
-790 -1005 0
-790 -1010 0
-790 -1015 0
-790 -1020 0
-790 -1025 0
-790 -1030 0
-790 -1035 0
-790 -1040 0
-790 -1045 0
-790 -1050 0
-790 -1055 0
-790 -1060 0
-790 -1065 0
-790 -1070 0
-795 -800 0
-795 -805 0
-795 -810 0
-795 -815 0
-795 -820 0
-795 -825 0
-795 -830 0
-795 -835 0
-795 -840 0
-795 -845 0
-795 -850 0
-795 -855 0
-795 -860 0
-795 -865 0
-795 -870 0
-795 -875 0
-795 -880 0
-795 -885 0
-795 -890 0
-795 -895 0
-795 -900 0
-795 -905 0
-795 -910 0
-795 -915 0
-795 -920 0
-795 -925 0
-795 -930 0
-795 -935 0
-795 -940 0
-795 -945 0
-795 -950 0
-795 -955 0
-795 -960 0
-795 -965 0
-795 -970 0
-795 -975 0
-795 -980 0
-795 -985 0
-795 -990 0
-795 -995 0
-795 -1000 0
-795 -1005 0
-795 -1010 0
-795 -1015 0
-795 -1020 0
-795 -1025 0
-795 -1030 0
-795 -1035 0
-795 -1040 0
-795 -1045 0
-795 -1050 0
-795 -1055 0
-795 -1060 0
-795 -1065 0
-795 -1070 0
-800 -805 0
-800 -810 0
-800 -815 0
-800 -820 0
-800 -825 0
-800 -830 0
-800 -835 0
-800 -840 0
-800 -845 0
-800 -850 0
-800 -855 0
-800 -860 0
-800 -865 0
-800 -870 0
-800 -875 0
-800 -880 0
-800 -885 0
-800 -890 0
-800 -895 0
-800 -900 0
-800 -905 0
-800 -910 0
-800 -915 0
-800 -920 0
-800 -925 0
-800 -930 0
-800 -935 0
-800 -940 0
-800 -945 0
-800 -950 0
-800 -955 0
-800 -960 0
-800 -965 0
-800 -970 0
-800 -975 0
-800 -980 0
-800 -985 0
-800 -990 0
-800 -995 0
-800 -1000 0
-800 -1005 0
-800 -1010 0
-800 -1015 0
-800 -1020 0
-800 -1025 0
-800 -1030 0
-800 -1035 0
-800 -1040 0
-800 -1045 0
-800 -1050 0
-800 -1055 0
-800 -1060 0
-800 -1065 0
-800 -1070 0
-805 -810 0
-805 -815 0
-805 -820 0
-805 -825 0
-805 -830 0
-805 -835 0
-805 -840 0
-805 -845 0
-805 -850 0
-805 -855 0
-805 -860 0
-805 -865 0
-805 -870 0
-805 -875 0
-805 -880 0
-805 -885 0
-805 -890 0
-805 -895 0
-805 -900 0
-805 -905 0
-805 -910 0
-805 -915 0
-805 -920 0
-805 -925 0
-805 -930 0
-805 -935 0
-805 -940 0
-805 -945 0
-805 -950 0
-805 -955 0
-805 -960 0
-805 -965 0
-805 -970 0
-805 -975 0
-805 -980 0
-805 -985 0
-805 -990 0
-805 -995 0
-805 -1000 0
-805 -1005 0
-805 -1010 0
-805 -1015 0
-805 -1020 0
-805 -1025 0
-805 -1030 0
-805 -1035 0
-805 -1040 0
-805 -1045 0
-805 -1050 0
-805 -1055 0
-805 -1060 0
-805 -1065 0
-805 -1070 0
-810 -815 0
-810 -820 0
-810 -825 0
-810 -830 0
-810 -835 0
-810 -840 0
-810 -845 0
-810 -850 0
-810 -855 0
-810 -860 0
-810 -865 0
-810 -870 0
-810 -875 0
-810 -880 0
-810 -885 0
-810 -890 0
-810 -895 0
-810 -900 0
-810 -905 0
-810 -910 0
-810 -915 0
-810 -920 0
-810 -925 0
-810 -930 0
-810 -935 0
-810 -940 0
-810 -945 0
-810 -950 0
-810 -955 0
-810 -960 0
-810 -965 0
-810 -970 0
-810 -975 0
-810 -980 0
-810 -985 0
-810 -990 0
-810 -995 0
-810 -1000 0
-810 -1005 0
-810 -1010 0
-810 -1015 0
-810 -1020 0
-810 -1025 0
-810 -1030 0
-810 -1035 0
-810 -1040 0
-810 -1045 0
-810 -1050 0
-810 -1055 0
-810 -1060 0
-810 -1065 0
-810 -1070 0
-815 -820 0
-815 -825 0
-815 -830 0
-815 -835 0
-815 -840 0
-815 -845 0
-815 -850 0
-815 -855 0
-815 -860 0
-815 -865 0
-815 -870 0
-815 -875 0
-815 -880 0
-815 -885 0
-815 -890 0
-815 -895 0
-815 -900 0
-815 -905 0
-815 -910 0
-815 -915 0
-815 -920 0
-815 -925 0
-815 -930 0
-815 -935 0
-815 -940 0
-815 -945 0
-815 -950 0
-815 -955 0
-815 -960 0
-815 -965 0
-815 -970 0
-815 -975 0
-815 -980 0
-815 -985 0
-815 -990 0
-815 -995 0
-815 -1000 0
-815 -1005 0
-815 -1010 0
-815 -1015 0
-815 -1020 0
-815 -1025 0
-815 -1030 0
-815 -1035 0
-815 -1040 0
-815 -1045 0
-815 -1050 0
-815 -1055 0
-815 -1060 0
-815 -1065 0
-815 -1070 0
-820 -825 0
-820 -830 0
-820 -835 0
-820 -840 0
-820 -845 0
-820 -850 0
-820 -855 0
-820 -860 0
-820 -865 0
-820 -870 0
-820 -875 0
-820 -880 0
-820 -885 0
-820 -890 0
-820 -895 0
-820 -900 0
-820 -905 0
-820 -910 0
-820 -915 0
-820 -920 0
-820 -925 0
-820 -930 0
-820 -935 0
-820 -940 0
-820 -945 0
-820 -950 0
-820 -955 0
-820 -960 0
-820 -965 0
-820 -970 0
-820 -975 0
-820 -980 0
-820 -985 0
-820 -990 0
-820 -995 0
-820 -1000 0
-820 -1005 0
-820 -1010 0
-820 -1015 0
-820 -1020 0
-820 -1025 0
-820 -1030 0
-820 -1035 0
-820 -1040 0
-820 -1045 0
-820 -1050 0
-820 -1055 0
-820 -1060 0
-820 -1065 0
-820 -1070 0
-825 -830 0
-825 -835 0
-825 -840 0
-825 -845 0
-825 -850 0
-825 -855 0
-825 -860 0
-825 -865 0
-825 -870 0
-825 -875 0
-825 -880 0
-825 -885 0
-825 -890 0
-825 -895 0
-825 -900 0
-825 -905 0
-825 -910 0
-825 -915 0
-825 -920 0
-825 -925 0
-825 -930 0
-825 -935 0
-825 -940 0
-825 -945 0
-825 -950 0
-825 -955 0
-825 -960 0
-825 -965 0
-825 -970 0
-825 -975 0
-825 -980 0
-825 -985 0
-825 -990 0
-825 -995 0
-825 -1000 0
-825 -1005 0
-825 -1010 0
-825 -1015 0
-825 -1020 0
-825 -1025 0
-825 -1030 0
-825 -1035 0
-825 -1040 0
-825 -1045 0
-825 -1050 0
-825 -1055 0
-825 -1060 0
-825 -1065 0
-825 -1070 0
-830 -835 0
-830 -840 0
-830 -845 0
-830 -850 0
-830 -855 0
-830 -860 0
-830 -865 0
-830 -870 0
-830 -875 0
-830 -880 0
-830 -885 0
-830 -890 0
-830 -895 0
-830 -900 0
-830 -905 0
-830 -910 0
-830 -915 0
-830 -920 0
-830 -925 0
-830 -930 0
-830 -935 0
-830 -940 0
-830 -945 0
-830 -950 0
-830 -955 0
-830 -960 0
-830 -965 0
-830 -970 0
-830 -975 0
-830 -980 0
-830 -985 0
-830 -990 0
-830 -995 0
-830 -1000 0
-830 -1005 0
-830 -1010 0
-830 -1015 0
-830 -1020 0
-830 -1025 0
-830 -1030 0
-830 -1035 0
-830 -1040 0
-830 -1045 0
-830 -1050 0
-830 -1055 0
-830 -1060 0
-830 -1065 0
-830 -1070 0
-835 -840 0
-835 -845 0
-835 -850 0
-835 -855 0
-835 -860 0
-835 -865 0
-835 -870 0
-835 -875 0
-835 -880 0
-835 -885 0
-835 -890 0
-835 -895 0
-835 -900 0
-835 -905 0
-835 -910 0
-835 -915 0
-835 -920 0
-835 -925 0
-835 -930 0
-835 -935 0
-835 -940 0
-835 -945 0
-835 -950 0
-835 -955 0
-835 -960 0
-835 -965 0
-835 -970 0
-835 -975 0
-835 -980 0
-835 -985 0
-835 -990 0
-835 -995 0
-835 -1000 0
-835 -1005 0
-835 -1010 0
-835 -1015 0
-835 -1020 0
-835 -1025 0
-835 -1030 0
-835 -1035 0
-835 -1040 0
-835 -1045 0
-835 -1050 0
-835 -1055 0
-835 -1060 0
-835 -1065 0
-835 -1070 0
-840 -845 0
-840 -850 0
-840 -855 0
-840 -860 0
-840 -865 0
-840 -870 0
-840 -875 0
-840 -880 0
-840 -885 0
-840 -890 0
-840 -895 0
-840 -900 0
-840 -905 0
-840 -910 0
-840 -915 0
-840 -920 0
-840 -925 0
-840 -930 0
-840 -935 0
-840 -940 0
-840 -945 0
-840 -950 0
-840 -955 0
-840 -960 0
-840 -965 0
-840 -970 0
-840 -975 0
-840 -980 0
-840 -985 0
-840 -990 0
-840 -995 0
-840 -1000 0
-840 -1005 0
-840 -1010 0
-840 -1015 0
-840 -1020 0
-840 -1025 0
-840 -1030 0
-840 -1035 0
-840 -1040 0
-840 -1045 0
-840 -1050 0
-840 -1055 0
-840 -1060 0
-840 -1065 0
-840 -1070 0
-845 -850 0
-845 -855 0
-845 -860 0
-845 -865 0
-845 -870 0
-845 -875 0
-845 -880 0
-845 -885 0
-845 -890 0
-845 -895 0
-845 -900 0
-845 -905 0
-845 -910 0
-845 -915 0
-845 -920 0
-845 -925 0
-845 -930 0
-845 -935 0
-845 -940 0
-845 -945 0
-845 -950 0
-845 -955 0
-845 -960 0
-845 -965 0
-845 -970 0
-845 -975 0
-845 -980 0
-845 -985 0
-845 -990 0
-845 -995 0
-845 -1000 0
-845 -1005 0
-845 -1010 0
-845 -1015 0
-845 -1020 0
-845 -1025 0
-845 -1030 0
-845 -1035 0
-845 -1040 0
-845 -1045 0
-845 -1050 0
-845 -1055 0
-845 -1060 0
-845 -1065 0
-845 -1070 0
-850 -855 0
-850 -860 0
-850 -865 0
-850 -870 0
-850 -875 0
-850 -880 0
-850 -885 0
-850 -890 0
-850 -895 0
-850 -900 0
-850 -905 0
-850 -910 0
-850 -915 0
-850 -920 0
-850 -925 0
-850 -930 0
-850 -935 0
-850 -940 0
-850 -945 0
-850 -950 0
-850 -955 0
-850 -960 0
-850 -965 0
-850 -970 0
-850 -975 0
-850 -980 0
-850 -985 0
-850 -990 0
-850 -995 0
-850 -1000 0
-850 -1005 0
-850 -1010 0
-850 -1015 0
-850 -1020 0
-850 -1025 0
-850 -1030 0
-850 -1035 0
-850 -1040 0
-850 -1045 0
-850 -1050 0
-850 -1055 0
-850 -1060 0
-850 -1065 0
-850 -1070 0
-855 -860 0
-855 -865 0
-855 -870 0
-855 -875 0
-855 -880 0
-855 -885 0
-855 -890 0
-855 -895 0
-855 -900 0
-855 -905 0
-855 -910 0
-855 -915 0
-855 -920 0
-855 -925 0
-855 -930 0
-855 -935 0
-855 -940 0
-855 -945 0
-855 -950 0
-855 -955 0
-855 -960 0
-855 -965 0
-855 -970 0
-855 -975 0
-855 -980 0
-855 -985 0
-855 -990 0
-855 -995 0
-855 -1000 0
-855 -1005 0
-855 -1010 0
-855 -1015 0
-855 -1020 0
-855 -1025 0
-855 -1030 0
-855 -1035 0
-855 -1040 0
-855 -1045 0
-855 -1050 0
-855 -1055 0
-855 -1060 0
-855 -1065 0
-855 -1070 0
-860 -865 0
-860 -870 0
-860 -875 0
-860 -880 0
-860 -885 0
-860 -890 0
-860 -895 0
-860 -900 0
-860 -905 0
-860 -910 0
-860 -915 0
-860 -920 0
-860 -925 0
-860 -930 0
-860 -935 0
-860 -940 0
-860 -945 0
-860 -950 0
-860 -955 0
-860 -960 0
-860 -965 0
-860 -970 0
-860 -975 0
-860 -980 0
-860 -985 0
-860 -990 0
-860 -995 0
-860 -1000 0
-860 -1005 0
-860 -1010 0
-860 -1015 0
-860 -1020 0
-860 -1025 0
-860 -1030 0
-860 -1035 0
-860 -1040 0
-860 -1045 0
-860 -1050 0
-860 -1055 0
-860 -1060 0
-860 -1065 0
-860 -1070 0
-865 -870 0
-865 -875 0
-865 -880 0
-865 -885 0
-865 -890 0
-865 -895 0
-865 -900 0
-865 -905 0
-865 -910 0
-865 -915 0
-865 -920 0
-865 -925 0
-865 -930 0
-865 -935 0
-865 -940 0
-865 -945 0
-865 -950 0
-865 -955 0
-865 -960 0
-865 -965 0
-865 -970 0
-865 -975 0
-865 -980 0
-865 -985 0
-865 -990 0
-865 -995 0
-865 -1000 0
-865 -1005 0
-865 -1010 0
-865 -1015 0
-865 -1020 0
-865 -1025 0
-865 -1030 0
-865 -1035 0
-865 -1040 0
-865 -1045 0
-865 -1050 0
-865 -1055 0
-865 -1060 0
-865 -1065 0
-865 -1070 0
-870 -875 0
-870 -880 0
-870 -885 0
-870 -890 0
-870 -895 0
-870 -900 0
-870 -905 0
-870 -910 0
-870 -915 0
-870 -920 0
-870 -925 0
-870 -930 0
-870 -935 0
-870 -940 0
-870 -945 0
-870 -950 0
-870 -955 0
-870 -960 0
-870 -965 0
-870 -970 0
-870 -975 0
-870 -980 0
-870 -985 0
-870 -990 0
-870 -995 0
-870 -1000 0
-870 -1005 0
-870 -1010 0
-870 -1015 0
-870 -1020 0
-870 -1025 0
-870 -1030 0
-870 -1035 0
-870 -1040 0
-870 -1045 0
-870 -1050 0
-870 -1055 0
-870 -1060 0
-870 -1065 0
-870 -1070 0
-875 -880 0
-875 -885 0
-875 -890 0
-875 -895 0
-875 -900 0
-875 -905 0
-875 -910 0
-875 -915 0
-875 -920 0
-875 -925 0
-875 -930 0
-875 -935 0
-875 -940 0
-875 -945 0
-875 -950 0
-875 -955 0
-875 -960 0
-875 -965 0
-875 -970 0
-875 -975 0
-875 -980 0
-875 -985 0
-875 -990 0
-875 -995 0
-875 -1000 0
-875 -1005 0
-875 -1010 0
-875 -1015 0
-875 -1020 0
-875 -1025 0
-875 -1030 0
-875 -1035 0
-875 -1040 0
-875 -1045 0
-875 -1050 0
-875 -1055 0
-875 -1060 0
-875 -1065 0
-875 -1070 0
-880 -885 0
-880 -890 0
-880 -895 0
-880 -900 0
-880 -905 0
-880 -910 0
-880 -915 0
-880 -920 0
-880 -925 0
-880 -930 0
-880 -935 0
-880 -940 0
-880 -945 0
-880 -950 0
-880 -955 0
-880 -960 0
-880 -965 0
-880 -970 0
-880 -975 0
-880 -980 0
-880 -985 0
-880 -990 0
-880 -995 0
-880 -1000 0
-880 -1005 0
-880 -1010 0
-880 -1015 0
-880 -1020 0
-880 -1025 0
-880 -1030 0
-880 -1035 0
-880 -1040 0
-880 -1045 0
-880 -1050 0
-880 -1055 0
-880 -1060 0
-880 -1065 0
-880 -1070 0
-885 -890 0
-885 -895 0
-885 -900 0
-885 -905 0
-885 -910 0
-885 -915 0
-885 -920 0
-885 -925 0
-885 -930 0
-885 -935 0
-885 -940 0
-885 -945 0
-885 -950 0
-885 -955 0
-885 -960 0
-885 -965 0
-885 -970 0
-885 -975 0
-885 -980 0
-885 -985 0
-885 -990 0
-885 -995 0
-885 -1000 0
-885 -1005 0
-885 -1010 0
-885 -1015 0
-885 -1020 0
-885 -1025 0
-885 -1030 0
-885 -1035 0
-885 -1040 0
-885 -1045 0
-885 -1050 0
-885 -1055 0
-885 -1060 0
-885 -1065 0
-885 -1070 0
-890 -895 0
-890 -900 0
-890 -905 0
-890 -910 0
-890 -915 0
-890 -920 0
-890 -925 0
-890 -930 0
-890 -935 0
-890 -940 0
-890 -945 0
-890 -950 0
-890 -955 0
-890 -960 0
-890 -965 0
-890 -970 0
-890 -975 0
-890 -980 0
-890 -985 0
-890 -990 0
-890 -995 0
-890 -1000 0
-890 -1005 0
-890 -1010 0
-890 -1015 0
-890 -1020 0
-890 -1025 0
-890 -1030 0
-890 -1035 0
-890 -1040 0
-890 -1045 0
-890 -1050 0
-890 -1055 0
-890 -1060 0
-890 -1065 0
-890 -1070 0
-895 -900 0
-895 -905 0
-895 -910 0
-895 -915 0
-895 -920 0
-895 -925 0
-895 -930 0
-895 -935 0
-895 -940 0
-895 -945 0
-895 -950 0
-895 -955 0
-895 -960 0
-895 -965 0
-895 -970 0
-895 -975 0
-895 -980 0
-895 -985 0
-895 -990 0
-895 -995 0
-895 -1000 0
-895 -1005 0
-895 -1010 0
-895 -1015 0
-895 -1020 0
-895 -1025 0
-895 -1030 0
-895 -1035 0
-895 -1040 0
-895 -1045 0
-895 -1050 0
-895 -1055 0
-895 -1060 0
-895 -1065 0
-895 -1070 0
-900 -905 0
-900 -910 0
-900 -915 0
-900 -920 0
-900 -925 0
-900 -930 0
-900 -935 0
-900 -940 0
-900 -945 0
-900 -950 0
-900 -955 0
-900 -960 0
-900 -965 0
-900 -970 0
-900 -975 0
-900 -980 0
-900 -985 0
-900 -990 0
-900 -995 0
-900 -1000 0
-900 -1005 0
-900 -1010 0
-900 -1015 0
-900 -1020 0
-900 -1025 0
-900 -1030 0
-900 -1035 0
-900 -1040 0
-900 -1045 0
-900 -1050 0
-900 -1055 0
-900 -1060 0
-900 -1065 0
-900 -1070 0
-905 -910 0
-905 -915 0
-905 -920 0
-905 -925 0
-905 -930 0
-905 -935 0
-905 -940 0
-905 -945 0
-905 -950 0
-905 -955 0
-905 -960 0
-905 -965 0
-905 -970 0
-905 -975 0
-905 -980 0
-905 -985 0
-905 -990 0
-905 -995 0
-905 -1000 0
-905 -1005 0
-905 -1010 0
-905 -1015 0
-905 -1020 0
-905 -1025 0
-905 -1030 0
-905 -1035 0
-905 -1040 0
-905 -1045 0
-905 -1050 0
-905 -1055 0
-905 -1060 0
-905 -1065 0
-905 -1070 0
-910 -915 0
-910 -920 0
-910 -925 0
-910 -930 0
-910 -935 0
-910 -940 0
-910 -945 0
-910 -950 0
-910 -955 0
-910 -960 0
-910 -965 0
-910 -970 0
-910 -975 0
-910 -980 0
-910 -985 0
-910 -990 0
-910 -995 0
-910 -1000 0
-910 -1005 0
-910 -1010 0
-910 -1015 0
-910 -1020 0
-910 -1025 0
-910 -1030 0
-910 -1035 0
-910 -1040 0
-910 -1045 0
-910 -1050 0
-910 -1055 0
-910 -1060 0
-910 -1065 0
-910 -1070 0
-915 -920 0
-915 -925 0
-915 -930 0
-915 -935 0
-915 -940 0
-915 -945 0
-915 -950 0
-915 -955 0
-915 -960 0
-915 -965 0
-915 -970 0
-915 -975 0
-915 -980 0
-915 -985 0
-915 -990 0
-915 -995 0
-915 -1000 0
-915 -1005 0
-915 -1010 0
-915 -1015 0
-915 -1020 0
-915 -1025 0
-915 -1030 0
-915 -1035 0
-915 -1040 0
-915 -1045 0
-915 -1050 0
-915 -1055 0
-915 -1060 0
-915 -1065 0
-915 -1070 0
-920 -925 0
-920 -930 0
-920 -935 0
-920 -940 0
-920 -945 0
-920 -950 0
-920 -955 0
-920 -960 0
-920 -965 0
-920 -970 0
-920 -975 0
-920 -980 0
-920 -985 0
-920 -990 0
-920 -995 0
-920 -1000 0
-920 -1005 0
-920 -1010 0
-920 -1015 0
-920 -1020 0
-920 -1025 0
-920 -1030 0
-920 -1035 0
-920 -1040 0
-920 -1045 0
-920 -1050 0
-920 -1055 0
-920 -1060 0
-920 -1065 0
-920 -1070 0
-925 -930 0
-925 -935 0
-925 -940 0
-925 -945 0
-925 -950 0
-925 -955 0
-925 -960 0
-925 -965 0
-925 -970 0
-925 -975 0
-925 -980 0
-925 -985 0
-925 -990 0
-925 -995 0
-925 -1000 0
-925 -1005 0
-925 -1010 0
-925 -1015 0
-925 -1020 0
-925 -1025 0
-925 -1030 0
-925 -1035 0
-925 -1040 0
-925 -1045 0
-925 -1050 0
-925 -1055 0
-925 -1060 0
-925 -1065 0
-925 -1070 0
-930 -935 0
-930 -940 0
-930 -945 0
-930 -950 0
-930 -955 0
-930 -960 0
-930 -965 0
-930 -970 0
-930 -975 0
-930 -980 0
-930 -985 0
-930 -990 0
-930 -995 0
-930 -1000 0
-930 -1005 0
-930 -1010 0
-930 -1015 0
-930 -1020 0
-930 -1025 0
-930 -1030 0
-930 -1035 0
-930 -1040 0
-930 -1045 0
-930 -1050 0
-930 -1055 0
-930 -1060 0
-930 -1065 0
-930 -1070 0
-935 -940 0
-935 -945 0
-935 -950 0
-935 -955 0
-935 -960 0
-935 -965 0
-935 -970 0
-935 -975 0
-935 -980 0
-935 -985 0
-935 -990 0
-935 -995 0
-935 -1000 0
-935 -1005 0
-935 -1010 0
-935 -1015 0
-935 -1020 0
-935 -1025 0
-935 -1030 0
-935 -1035 0
-935 -1040 0
-935 -1045 0
-935 -1050 0
-935 -1055 0
-935 -1060 0
-935 -1065 0
-935 -1070 0
-940 -945 0
-940 -950 0
-940 -955 0
-940 -960 0
-940 -965 0
-940 -970 0
-940 -975 0
-940 -980 0
-940 -985 0
-940 -990 0
-940 -995 0
-940 -1000 0
-940 -1005 0
-940 -1010 0
-940 -1015 0
-940 -1020 0
-940 -1025 0
-940 -1030 0
-940 -1035 0
-940 -1040 0
-940 -1045 0
-940 -1050 0
-940 -1055 0
-940 -1060 0
-940 -1065 0
-940 -1070 0
-945 -950 0
-945 -955 0
-945 -960 0
-945 -965 0
-945 -970 0
-945 -975 0
-945 -980 0
-945 -985 0
-945 -990 0
-945 -995 0
-945 -1000 0
-945 -1005 0
-945 -1010 0
-945 -1015 0
-945 -1020 0
-945 -1025 0
-945 -1030 0
-945 -1035 0
-945 -1040 0
-945 -1045 0
-945 -1050 0
-945 -1055 0
-945 -1060 0
-945 -1065 0
-945 -1070 0
-950 -955 0
-950 -960 0
-950 -965 0
-950 -970 0
-950 -975 0
-950 -980 0
-950 -985 0
-950 -990 0
-950 -995 0
-950 -1000 0
-950 -1005 0
-950 -1010 0
-950 -1015 0
-950 -1020 0
-950 -1025 0
-950 -1030 0
-950 -1035 0
-950 -1040 0
-950 -1045 0
-950 -1050 0
-950 -1055 0
-950 -1060 0
-950 -1065 0
-950 -1070 0
-955 -960 0
-955 -965 0
-955 -970 0
-955 -975 0
-955 -980 0
-955 -985 0
-955 -990 0
-955 -995 0
-955 -1000 0
-955 -1005 0
-955 -1010 0
-955 -1015 0
-955 -1020 0
-955 -1025 0
-955 -1030 0
-955 -1035 0
-955 -1040 0
-955 -1045 0
-955 -1050 0
-955 -1055 0
-955 -1060 0
-955 -1065 0
-955 -1070 0
-960 -965 0
-960 -970 0
-960 -975 0
-960 -980 0
-960 -985 0
-960 -990 0
-960 -995 0
-960 -1000 0
-960 -1005 0
-960 -1010 0
-960 -1015 0
-960 -1020 0
-960 -1025 0
-960 -1030 0
-960 -1035 0
-960 -1040 0
-960 -1045 0
-960 -1050 0
-960 -1055 0
-960 -1060 0
-960 -1065 0
-960 -1070 0
-965 -970 0
-965 -975 0
-965 -980 0
-965 -985 0
-965 -990 0
-965 -995 0
-965 -1000 0
-965 -1005 0
-965 -1010 0
-965 -1015 0
-965 -1020 0
-965 -1025 0
-965 -1030 0
-965 -1035 0
-965 -1040 0
-965 -1045 0
-965 -1050 0
-965 -1055 0
-965 -1060 0
-965 -1065 0
-965 -1070 0
-970 -975 0
-970 -980 0
-970 -985 0
-970 -990 0
-970 -995 0
-970 -1000 0
-970 -1005 0
-970 -1010 0
-970 -1015 0
-970 -1020 0
-970 -1025 0
-970 -1030 0
-970 -1035 0
-970 -1040 0
-970 -1045 0
-970 -1050 0
-970 -1055 0
-970 -1060 0
-970 -1065 0
-970 -1070 0
-975 -980 0
-975 -985 0
-975 -990 0
-975 -995 0
-975 -1000 0
-975 -1005 0
-975 -1010 0
-975 -1015 0
-975 -1020 0
-975 -1025 0
-975 -1030 0
-975 -1035 0
-975 -1040 0
-975 -1045 0
-975 -1050 0
-975 -1055 0
-975 -1060 0
-975 -1065 0
-975 -1070 0
-980 -985 0
-980 -990 0
-980 -995 0
-980 -1000 0
-980 -1005 0
-980 -1010 0
-980 -1015 0
-980 -1020 0
-980 -1025 0
-980 -1030 0
-980 -1035 0
-980 -1040 0
-980 -1045 0
-980 -1050 0
-980 -1055 0
-980 -1060 0
-980 -1065 0
-980 -1070 0
-985 -990 0
-985 -995 0
-985 -1000 0
-985 -1005 0
-985 -1010 0
-985 -1015 0
-985 -1020 0
-985 -1025 0
-985 -1030 0
-985 -1035 0
-985 -1040 0
-985 -1045 0
-985 -1050 0
-985 -1055 0
-985 -1060 0
-985 -1065 0
-985 -1070 0
-990 -995 0
-990 -1000 0
-990 -1005 0
-990 -1010 0
-990 -1015 0
-990 -1020 0
-990 -1025 0
-990 -1030 0
-990 -1035 0
-990 -1040 0
-990 -1045 0
-990 -1050 0
-990 -1055 0
-990 -1060 0
-990 -1065 0
-990 -1070 0
-995 -1000 0
-995 -1005 0
-995 -1010 0
-995 -1015 0
-995 -1020 0
-995 -1025 0
-995 -1030 0
-995 -1035 0
-995 -1040 0
-995 -1045 0
-995 -1050 0
-995 -1055 0
-995 -1060 0
-995 -1065 0
-995 -1070 0
-1000 -1005 0
-1000 -1010 0
-1000 -1015 0
-1000 -1020 0
-1000 -1025 0
-1000 -1030 0
-1000 -1035 0
-1000 -1040 0
-1000 -1045 0
-1000 -1050 0
-1000 -1055 0
-1000 -1060 0
-1000 -1065 0
-1000 -1070 0
-1005 -1010 0
-1005 -1015 0
-1005 -1020 0
-1005 -1025 0
-1005 -1030 0
-1005 -1035 0
-1005 -1040 0
-1005 -1045 0
-1005 -1050 0
-1005 -1055 0
-1005 -1060 0
-1005 -1065 0
-1005 -1070 0
-1010 -1015 0
-1010 -1020 0
-1010 -1025 0
-1010 -1030 0
-1010 -1035 0
-1010 -1040 0
-1010 -1045 0
-1010 -1050 0
-1010 -1055 0
-1010 -1060 0
-1010 -1065 0
-1010 -1070 0
-1015 -1020 0
-1015 -1025 0
-1015 -1030 0
-1015 -1035 0
-1015 -1040 0
-1015 -1045 0
-1015 -1050 0
-1015 -1055 0
-1015 -1060 0
-1015 -1065 0
-1015 -1070 0
-1020 -1025 0
-1020 -1030 0
-1020 -1035 0
-1020 -1040 0
-1020 -1045 0
-1020 -1050 0
-1020 -1055 0
-1020 -1060 0
-1020 -1065 0
-1020 -1070 0
-1025 -1030 0
-1025 -1035 0
-1025 -1040 0
-1025 -1045 0
-1025 -1050 0
-1025 -1055 0
-1025 -1060 0
-1025 -1065 0
-1025 -1070 0
-1030 -1035 0
-1030 -1040 0
-1030 -1045 0
-1030 -1050 0
-1030 -1055 0
-1030 -1060 0
-1030 -1065 0
-1030 -1070 0
-1035 -1040 0
-1035 -1045 0
-1035 -1050 0
-1035 -1055 0
-1035 -1060 0
-1035 -1065 0
-1035 -1070 0
-1040 -1045 0
-1040 -1050 0
-1040 -1055 0
-1040 -1060 0
-1040 -1065 0
-1040 -1070 0
-1045 -1050 0
-1045 -1055 0
-1045 -1060 0
-1045 -1065 0
-1045 -1070 0
-1050 -1055 0
-1050 -1060 0
-1050 -1065 0
-1050 -1070 0
-1055 -1060 0
-1055 -1065 0
-1055 -1070 0
-1060 -1065 0
-1060 -1070 0
-1065 -1070 0
-655 199 0
-655 -157 0
-655 -145 2 0
-655 -145 134 0
-655 -145 -43 0
-655 -145 -49 0
-655 -145 -55 0
-655 -145 -61 0
-655 -145 -67 0
-655 -145 -37 -151 0
-655 -145 -73 -169 0
-655 -145 -103 -187 0
-655 -145 331 439 547 0
-655 -151 2 0
-655 -151 140 0
-655 -151 -43 0
-655 -151 -49 0
-655 -151 -55 0
-655 -151 -61 0
-655 -151 -67 0
-655 -151 -37 -157 0
-655 -151 -73 -175 0
-655 -151 -103 -193 0
-655 -151 337 445 553 0
-655 -1 -145 -133 0
-655 -1 -151 -139 0
-660 199 0
-660 -157 0
-660 -145 8 0
-660 -145 134 0
-660 -145 -37 0
-660 -145 -49 0
-660 -145 -55 0
-660 -145 -61 0
-660 -145 -67 0
-660 -145 -43 -151 0
-660 -145 -73 -169 0
-660 -145 -79 -169 0
-660 -145 -103 -187 0
-660 -145 -109 -187 0
-660 -145 349 457 565 0
-660 -151 8 0
-660 -151 140 0
-660 -151 -37 0
-660 -151 -49 0
-660 -151 -55 0
-660 -151 -61 0
-660 -151 -67 0
-660 -151 -43 -157 0
-660 -151 -73 -175 0
-660 -151 -79 -175 0
-660 -151 -103 -193 0
-660 -151 -109 -193 0
-660 -151 355 463 571 0
-660 -7 -145 -133 0
-660 -7 -151 -139 0
-665 199 0
-665 -157 0
-665 -145 14 0
-665 -145 134 0
-665 -145 -37 0
-665 -145 -43 0
-665 -145 -55 0
-665 -145 -61 0
-665 -145 -67 0
-665 -145 -49 -151 0
-665 -145 -79 -169 0
-665 -145 -85 -169 0
-665 -145 -103 -187 0
-665 -145 -109 -187 0
-665 -145 -115 -187 0
-665 -145 367 475 583 0
-665 -151 14 0
-665 -151 140 0
-665 -151 -37 0
-665 -151 -43 0
-665 -151 -55 0
-665 -151 -61 0
-665 -151 -67 0
-665 -151 -49 -157 0
-665 -151 -79 -175 0
-665 -151 -85 -175 0
-665 -151 -103 -193 0
-665 -151 -109 -193 0
-665 -151 -115 -193 0
-665 -151 373 481 589 0
-665 -13 -145 -133 0
-665 -13 -151 -139 0
-670 199 0
-670 -157 0
-670 -145 20 0
-670 -145 134 0
-670 -145 -37 0
-670 -145 -43 0
-670 -145 -49 0
-670 -145 -61 0
-670 -145 -67 0
-670 -145 -55 -151 0
-670 -145 -85 -169 0
-670 -145 -91 -169 0
-670 -145 -109 -187 0
-670 -145 -115 -187 0
-670 -145 -121 -187 0
-670 -145 385 493 601 0
-670 -151 20 0
-670 -151 140 0
-670 -151 -37 0
-670 -151 -43 0
-670 -151 -49 0
-670 -151 -61 0
-670 -151 -67 0
-670 -151 -55 -157 0
-670 -151 -85 -175 0
-670 -151 -91 -175 0
-670 -151 -109 -193 0
-670 -151 -115 -193 0
-670 -151 -121 -193 0
-670 -151 391 499 607 0
-670 -19 -145 -133 0
-670 -19 -151 -139 0
-675 199 0
-675 -157 0
-675 -145 26 0
-675 -145 134 0
-675 -145 -37 0
-675 -145 -43 0
-675 -145 -49 0
-675 -145 -55 0
-675 -145 -67 0
-675 -145 -61 -151 0
-675 -145 -91 -169 0
-675 -145 -97 -169 0
-675 -145 -115 -187 0
-675 -145 -121 -187 0
-675 -145 403 511 619 0
-675 -151 26 0
-675 -151 140 0
-675 -151 -37 0
-675 -151 -43 0
-675 -151 -49 0
-675 -151 -55 0
-675 -151 -67 0
-675 -151 -61 -157 0
-675 -151 -91 -175 0
-675 -151 -97 -175 0
-675 -151 -115 -193 0
-675 -151 -121 -193 0
-675 -151 409 517 625 0
-675 -25 -145 -133 0
-675 -25 -151 -139 0
-680 199 0
-680 -157 0
-680 -145 32 0
-680 -145 134 0
-680 -145 -37 0
-680 -145 -43 0
-680 -145 -49 0
-680 -145 -55 0
-680 -145 -61 0
-680 -145 -67 -151 0
-680 -145 -97 -169 0
-680 -145 -121 -187 0
-680 -145 421 529 637 0
-680 -151 32 0
-680 -151 140 0
-680 -151 -37 0
-680 -151 -43 0
-680 -151 -49 0
-680 -151 -55 0
-680 -151 -61 0
-680 -151 -67 -157 0
-680 -151 -97 -175 0
-680 -151 -121 -193 0
-680 -151 427 535 643 0
-680 -31 -145 -133 0
-680 -31 -151 -139 0
-685 199 0
-685 -175 0
-685 -163 2 0
-685 -163 134 0
-685 -163 -79 0
-685 -163 -85 0
-685 -163 -91 0
-685 -163 -97 0
-685 -163 -37 -151 0
-685 -163 -73 -169 0
-685 -163 -103 -187 0
-685 -163 331 439 547 0
-685 -169 2 0
-685 -169 140 0
-685 -169 -79 0
-685 -169 -85 0
-685 -169 -91 0
-685 -169 -97 0
-685 -169 -37 -157 0
-685 -169 -73 -175 0
-685 -169 -103 -193 0
-685 -169 337 445 553 0
-685 -1 -163 -133 0
-685 -1 -169 -139 0
-690 199 0
-690 -175 0
-690 -163 8 0
-690 -163 134 0
-690 -163 -85 0
-690 -163 -91 0
-690 -163 -97 0
-690 -163 -43 -151 0
-690 -163 -73 -169 0
-690 -163 -79 -169 0
-690 -163 -103 -187 0
-690 -163 -109 -187 0
-690 -163 349 457 565 0
-690 -169 8 0
-690 -169 140 0
-690 -169 -85 0
-690 -169 -91 0
-690 -169 -97 0
-690 -169 -43 -157 0
-690 -169 -73 -175 0
-690 -169 -79 -175 0
-690 -169 -103 -193 0
-690 -169 -109 -193 0
-690 -169 355 463 571 0
-690 -7 -163 -133 0
-690 -7 -169 -139 0
-695 199 0
-695 -175 0
-695 -163 14 0
-695 -163 134 0
-695 -163 -73 0
-695 -163 -91 0
-695 -163 -97 0
-695 -163 -49 -151 0
-695 -163 -79 -169 0
-695 -163 -85 -169 0
-695 -163 -103 -187 0
-695 -163 -109 -187 0
-695 -163 -115 -187 0
-695 -163 367 475 583 0
-695 -169 14 0
-695 -169 140 0
-695 -169 -73 0
-695 -169 -91 0
-695 -169 -97 0
-695 -169 -49 -157 0
-695 -169 -79 -175 0
-695 -169 -85 -175 0
-695 -169 -103 -193 0
-695 -169 -109 -193 0
-695 -169 -115 -193 0
-695 -169 373 481 589 0
-695 -13 -163 -133 0
-695 -13 -169 -139 0
-700 199 0
-700 -175 0
-700 -163 20 0
-700 -163 134 0
-700 -163 -73 0
-700 -163 -79 0
-700 -163 -97 0
-700 -163 -55 -151 0
-700 -163 -85 -169 0
-700 -163 -91 -169 0
-700 -163 -109 -187 0
-700 -163 -115 -187 0
-700 -163 -121 -187 0
-700 -163 385 493 601 0
-700 -169 20 0
-700 -169 140 0
-700 -169 -73 0
-700 -169 -79 0
-700 -169 -97 0
-700 -169 -55 -157 0
-700 -169 -85 -175 0
-700 -169 -91 -175 0
-700 -169 -109 -193 0
-700 -169 -115 -193 0
-700 -169 -121 -193 0
-700 -169 391 499 607 0
-700 -19 -163 -133 0
-700 -19 -169 -139 0
-705 199 0
-705 -175 0
-705 -163 26 0
-705 -163 134 0
-705 -163 -73 0
-705 -163 -79 0
-705 -163 -85 0
-705 -163 -61 -151 0
-705 -163 -91 -169 0
-705 -163 -97 -169 0
-705 -163 -115 -187 0
-705 -163 -121 -187 0
-705 -163 403 511 619 0
-705 -169 26 0
-705 -169 140 0
-705 -169 -73 0
-705 -169 -79 0
-705 -169 -85 0
-705 -169 -61 -157 0
-705 -169 -91 -175 0
-705 -169 -97 -175 0
-705 -169 -115 -193 0
-705 -169 -121 -193 0
-705 -169 409 517 625 0
-705 -25 -163 -133 0
-705 -25 -169 -139 0
-710 199 0
-710 -175 0
-710 -163 32 0
-710 -163 134 0
-710 -163 -73 0
-710 -163 -79 0
-710 -163 -85 0
-710 -163 -91 0
-710 -163 -67 -151 0
-710 -163 -97 -169 0
-710 -163 -121 -187 0
-710 -163 421 529 637 0
-710 -169 32 0
-710 -169 140 0
-710 -169 -73 0
-710 -169 -79 0
-710 -169 -85 0
-710 -169 -91 0
-710 -169 -67 -157 0
-710 -169 -97 -175 0
-710 -169 -121 -193 0
-710 -169 427 535 643 0
-710 -31 -163 -133 0
-710 -31 -169 -139 0
-715 199 0
-715 -193 0
-715 -181 2 0
-715 -181 134 0
-715 -181 -109 0
-715 -181 -115 0
-715 -181 -121 0
-715 -181 -37 -151 0
-715 -181 -73 -169 0
-715 -181 -103 -187 0
-715 -181 331 439 547 0
-715 -187 2 0
-715 -187 140 0
-715 -187 -109 0
-715 -187 -115 0
-715 -187 -121 0
-715 -187 -37 -157 0
-715 -187 -73 -175 0
-715 -187 -103 -193 0
-715 -187 337 445 553 0
-715 -1 -181 -133 0
-715 -1 -187 -139 0
-720 199 0
-720 -193 0
-720 -181 8 0
-720 -181 134 0
-720 -181 -115 0
-720 -181 -121 0
-720 -181 -43 -151 0
-720 -181 -73 -169 0
-720 -181 -79 -169 0
-720 -181 -103 -187 0
-720 -181 -109 -187 0
-720 -181 349 457 565 0
-720 -187 8 0
-720 -187 140 0
-720 -187 -115 0
-720 -187 -121 0
-720 -187 -43 -157 0
-720 -187 -73 -175 0
-720 -187 -79 -175 0
-720 -187 -103 -193 0
-720 -187 -109 -193 0
-720 -187 355 463 571 0
-720 -7 -181 -133 0
-720 -7 -187 -139 0
-725 199 0
-725 -193 0
-725 -181 14 0
-725 -181 134 0
-725 -181 -121 0
-725 -181 -49 -151 0
-725 -181 -79 -169 0
-725 -181 -85 -169 0
-725 -181 -103 -187 0
-725 -181 -109 -187 0
-725 -181 -115 -187 0
-725 -181 367 475 583 0
-725 -187 14 0
-725 -187 140 0
-725 -187 -121 0
-725 -187 -49 -157 0
-725 -187 -79 -175 0
-725 -187 -85 -175 0
-725 -187 -103 -193 0
-725 -187 -109 -193 0
-725 -187 -115 -193 0
-725 -187 373 481 589 0
-725 -13 -181 -133 0
-725 -13 -187 -139 0
-730 199 0
-730 -193 0
-730 -181 20 0
-730 -181 134 0
-730 -181 -103 0
-730 -181 -55 -151 0
-730 -181 -85 -169 0
-730 -181 -91 -169 0
-730 -181 -109 -187 0
-730 -181 -115 -187 0
-730 -181 -121 -187 0
-730 -181 385 493 601 0
-730 -187 20 0
-730 -187 140 0
-730 -187 -103 0
-730 -187 -55 -157 0
-730 -187 -85 -175 0
-730 -187 -91 -175 0
-730 -187 -109 -193 0
-730 -187 -115 -193 0
-730 -187 -121 -193 0
-730 -187 391 499 607 0
-730 -19 -181 -133 0
-730 -19 -187 -139 0
-735 199 0
-735 -193 0
-735 -181 26 0
-735 -181 134 0
-735 -181 -103 0
-735 -181 -109 0
-735 -181 -61 -151 0
-735 -181 -91 -169 0
-735 -181 -97 -169 0
-735 -181 -115 -187 0
-735 -181 -121 -187 0
-735 -181 403 511 619 0
-735 -187 26 0
-735 -187 140 0
-735 -187 -103 0
-735 -187 -109 0
-735 -187 -61 -157 0
-735 -187 -91 -175 0
-735 -187 -97 -175 0
-735 -187 -115 -193 0
-735 -187 -121 -193 0
-735 -187 409 517 625 0
-735 -25 -181 -133 0
-735 -25 -187 -139 0
-740 199 0
-740 -193 0
-740 -181 32 0
-740 -181 134 0
-740 -181 -103 0
-740 -181 -109 0
-740 -181 -115 0
-740 -181 -67 -151 0
-740 -181 -97 -169 0
-740 -181 -121 -187 0
-740 -181 421 529 637 0
-740 -187 32 0
-740 -187 140 0
-740 -187 -103 0
-740 -187 -109 0
-740 -187 -115 0
-740 -187 -67 -157 0
-740 -187 -97 -175 0
-740 -187 -121 -193 0
-740 -187 427 535 643 0
-740 -31 -181 -133 0
-740 -31 -187 -139 0
-745 199 0
-745 2 0
-745 128 0
-745 -1 -127 0
-745 -37 -145 0
-745 -73 -163 0
-745 -103 -181 0
-750 199 0
-750 8 0
-750 128 0
-750 -7 -127 0
-750 -43 -145 0
-750 -73 -163 0
-750 -79 -163 0
-750 -103 -181 0
-750 -109 -181 0
-755 199 0
-755 14 0
-755 128 0
-755 -13 -127 0
-755 -49 -145 0
-755 -79 -163 0
-755 -85 -163 0
-755 -103 -181 0
-755 -109 -181 0
-755 -115 -181 0
-760 199 0
-760 20 0
-760 128 0
-760 -19 -127 0
-760 -55 -145 0
-760 -85 -163 0
-760 -91 -163 0
-760 -109 -181 0
-760 -115 -181 0
-760 -121 -181 0
-765 199 0
-765 26 0
-765 128 0
-765 -25 -127 0
-765 -61 -145 0
-765 -91 -163 0
-765 -97 -163 0
-765 -115 -181 0
-765 -121 -181 0
-770 199 0
-770 32 0
-770 128 0
-770 -31 -127 0
-770 -67 -145 0
-770 -97 -163 0
-770 -121 -181 0
-775 205 0
-775 -139 0
-775 -127 38 0
-775 -127 152 0
-775 -127 -7 0
-775 -127 -13 0
-775 -127 -19 0
-775 -127 -25 0
-775 -127 -31 0
-775 -127 -1 -133 0
-775 -127 -73 -169 0
-775 -127 -103 -187 0
-775 -127 223 439 547 0
-775 -133 38 0
-775 -133 158 0
-775 -133 -7 0
-775 -133 -13 0
-775 -133 -19 0
-775 -133 -25 0
-775 -133 -31 0
-775 -133 -1 -139 0
-775 -133 -73 -175 0
-775 -133 -103 -193 0
-775 -133 229 445 553 0
-775 -37 -127 -151 0
-775 -37 -133 -157 0
-780 205 0
-780 -139 0
-780 -127 44 0
-780 -127 152 0
-780 -127 -1 0
-780 -127 -13 0
-780 -127 -19 0
-780 -127 -25 0
-780 -127 -31 0
-780 -127 -7 -133 0
-780 -127 -73 -169 0
-780 -127 -79 -169 0
-780 -127 -103 -187 0
-780 -127 -109 -187 0
-780 -127 241 457 565 0
-780 -133 44 0
-780 -133 158 0
-780 -133 -1 0
-780 -133 -13 0
-780 -133 -19 0
-780 -133 -25 0
-780 -133 -31 0
-780 -133 -7 -139 0
-780 -133 -73 -175 0
-780 -133 -79 -175 0
-780 -133 -103 -193 0
-780 -133 -109 -193 0
-780 -133 247 463 571 0
-780 -43 -127 -151 0
-780 -43 -133 -157 0
-785 205 0
-785 -139 0
-785 -127 50 0
-785 -127 152 0
-785 -127 -1 0
-785 -127 -7 0
-785 -127 -19 0
-785 -127 -25 0
-785 -127 -31 0
-785 -127 -13 -133 0
-785 -127 -79 -169 0
-785 -127 -85 -169 0
-785 -127 -103 -187 0
-785 -127 -109 -187 0
-785 -127 -115 -187 0
-785 -127 259 475 583 0
-785 -133 50 0
-785 -133 158 0
-785 -133 -1 0
-785 -133 -7 0
-785 -133 -19 0
-785 -133 -25 0
-785 -133 -31 0
-785 -133 -13 -139 0
-785 -133 -79 -175 0
-785 -133 -85 -175 0
-785 -133 -103 -193 0
-785 -133 -109 -193 0
-785 -133 -115 -193 0
-785 -133 265 481 589 0
-785 -49 -127 -151 0
-785 -49 -133 -157 0
-790 205 0
-790 -139 0
-790 -127 56 0
-790 -127 152 0
-790 -127 -1 0
-790 -127 -7 0
-790 -127 -13 0
-790 -127 -25 0
-790 -127 -31 0
-790 -127 -19 -133 0
-790 -127 -85 -169 0
-790 -127 -91 -169 0
-790 -127 -109 -187 0
-790 -127 -115 -187 0
-790 -127 -121 -187 0
-790 -127 277 493 601 0
-790 -133 56 0
-790 -133 158 0
-790 -133 -1 0
-790 -133 -7 0
-790 -133 -13 0
-790 -133 -25 0
-790 -133 -31 0
-790 -133 -19 -139 0
-790 -133 -85 -175 0
-790 -133 -91 -175 0
-790 -133 -109 -193 0
-790 -133 -115 -193 0
-790 -133 -121 -193 0
-790 -133 283 499 607 0
-790 -55 -127 -151 0
-790 -55 -133 -157 0
-795 205 0
-795 -139 0
-795 -127 62 0
-795 -127 152 0
-795 -127 -1 0
-795 -127 -7 0
-795 -127 -13 0
-795 -127 -19 0
-795 -127 -31 0
-795 -127 -25 -133 0
-795 -127 -91 -169 0
-795 -127 -97 -169 0
-795 -127 -115 -187 0
-795 -127 -121 -187 0
-795 -127 295 511 619 0
-795 -133 62 0
-795 -133 158 0
-795 -133 -1 0
-795 -133 -7 0
-795 -133 -13 0
-795 -133 -19 0
-795 -133 -31 0
-795 -133 -25 -139 0
-795 -133 -91 -175 0
-795 -133 -97 -175 0
-795 -133 -115 -193 0
-795 -133 -121 -193 0
-795 -133 301 517 625 0
-795 -61 -127 -151 0
-795 -61 -133 -157 0
-800 205 0
-800 -139 0
-800 -127 68 0
-800 -127 152 0
-800 -127 -1 0
-800 -127 -7 0
-800 -127 -13 0
-800 -127 -19 0
-800 -127 -25 0
-800 -127 -31 -133 0
-800 -127 -97 -169 0
-800 -127 -121 -187 0
-800 -127 313 529 637 0
-800 -133 68 0
-800 -133 158 0
-800 -133 -1 0
-800 -133 -7 0
-800 -133 -13 0
-800 -133 -19 0
-800 -133 -25 0
-800 -133 -31 -139 0
-800 -133 -97 -175 0
-800 -133 -121 -193 0
-800 -133 319 535 643 0
-800 -67 -127 -151 0
-800 -67 -133 -157 0
-805 205 0
-805 -175 0
-805 -163 38 0
-805 -163 152 0
-805 -163 -79 0
-805 -163 -85 0
-805 -163 -91 0
-805 -163 -97 0
-805 -163 -1 -133 0
-805 -163 -73 -169 0
-805 -163 -103 -187 0
-805 -163 223 439 547 0
-805 -169 38 0
-805 -169 158 0
-805 -169 -79 0
-805 -169 -85 0
-805 -169 -91 0
-805 -169 -97 0
-805 -169 -1 -139 0
-805 -169 -73 -175 0
-805 -169 -103 -193 0
-805 -169 229 445 553 0
-805 -37 -163 -151 0
-805 -37 -169 -157 0
-810 205 0
-810 -175 0
-810 -163 44 0
-810 -163 152 0
-810 -163 -85 0
-810 -163 -91 0
-810 -163 -97 0
-810 -163 -7 -133 0
-810 -163 -73 -169 0
-810 -163 -79 -169 0
-810 -163 -103 -187 0
-810 -163 -109 -187 0
-810 -163 241 457 565 0
-810 -169 44 0
-810 -169 158 0
-810 -169 -85 0
-810 -169 -91 0
-810 -169 -97 0
-810 -169 -7 -139 0
-810 -169 -73 -175 0
-810 -169 -79 -175 0
-810 -169 -103 -193 0
-810 -169 -109 -193 0
-810 -169 247 463 571 0
-810 -43 -163 -151 0
-810 -43 -169 -157 0
-815 205 0
-815 -175 0
-815 -163 50 0
-815 -163 152 0
-815 -163 -73 0
-815 -163 -91 0
-815 -163 -97 0
-815 -163 -13 -133 0
-815 -163 -79 -169 0
-815 -163 -85 -169 0
-815 -163 -103 -187 0
-815 -163 -109 -187 0
-815 -163 -115 -187 0
-815 -163 259 475 583 0
-815 -169 50 0
-815 -169 158 0
-815 -169 -73 0
-815 -169 -91 0
-815 -169 -97 0
-815 -169 -13 -139 0
-815 -169 -79 -175 0
-815 -169 -85 -175 0
-815 -169 -103 -193 0
-815 -169 -109 -193 0
-815 -169 -115 -193 0
-815 -169 265 481 589 0
-815 -49 -163 -151 0
-815 -49 -169 -157 0
-820 205 0
-820 -175 0
-820 -163 56 0
-820 -163 152 0
-820 -163 -73 0
-820 -163 -79 0
-820 -163 -97 0
-820 -163 -19 -133 0
-820 -163 -85 -169 0
-820 -163 -91 -169 0
-820 -163 -109 -187 0
-820 -163 -115 -187 0
-820 -163 -121 -187 0
-820 -163 277 493 601 0
-820 -169 56 0
-820 -169 158 0
-820 -169 -73 0
-820 -169 -79 0
-820 -169 -97 0
-820 -169 -19 -139 0
-820 -169 -85 -175 0
-820 -169 -91 -175 0
-820 -169 -109 -193 0
-820 -169 -115 -193 0
-820 -169 -121 -193 0
-820 -169 283 499 607 0
-820 -55 -163 -151 0
-820 -55 -169 -157 0
-825 205 0
-825 -175 0
-825 -163 62 0
-825 -163 152 0
-825 -163 -73 0
-825 -163 -79 0
-825 -163 -85 0
-825 -163 -25 -133 0
-825 -163 -91 -169 0
-825 -163 -97 -169 0
-825 -163 -115 -187 0
-825 -163 -121 -187 0
-825 -163 295 511 619 0
-825 -169 62 0
-825 -169 158 0
-825 -169 -73 0
-825 -169 -79 0
-825 -169 -85 0
-825 -169 -25 -139 0
-825 -169 -91 -175 0
-825 -169 -97 -175 0
-825 -169 -115 -193 0
-825 -169 -121 -193 0
-825 -169 301 517 625 0
-825 -61 -163 -151 0
-825 -61 -169 -157 0
-830 205 0
-830 -175 0
-830 -163 68 0
-830 -163 152 0
-830 -163 -73 0
-830 -163 -79 0
-830 -163 -85 0
-830 -163 -91 0
-830 -163 -31 -133 0
-830 -163 -97 -169 0
-830 -163 -121 -187 0
-830 -163 313 529 637 0
-830 -169 68 0
-830 -169 158 0
-830 -169 -73 0
-830 -169 -79 0
-830 -169 -85 0
-830 -169 -91 0
-830 -169 -31 -139 0
-830 -169 -97 -175 0
-830 -169 -121 -193 0
-830 -169 319 535 643 0
-830 -67 -163 -151 0
-830 -67 -169 -157 0
-835 205 0
-835 -193 0
-835 -181 38 0
-835 -181 152 0
-835 -181 -109 0
-835 -181 -115 0
-835 -181 -121 0
-835 -181 -1 -133 0
-835 -181 -73 -169 0
-835 -181 -103 -187 0
-835 -181 223 439 547 0
-835 -187 38 0
-835 -187 158 0
-835 -187 -109 0
-835 -187 -115 0
-835 -187 -121 0
-835 -187 -1 -139 0
-835 -187 -73 -175 0
-835 -187 -103 -193 0
-835 -187 229 445 553 0
-835 -37 -181 -151 0
-835 -37 -187 -157 0
-840 205 0
-840 -193 0
-840 -181 44 0
-840 -181 152 0
-840 -181 -115 0
-840 -181 -121 0
-840 -181 -7 -133 0
-840 -181 -73 -169 0
-840 -181 -79 -169 0
-840 -181 -103 -187 0
-840 -181 -109 -187 0
-840 -181 241 457 565 0
-840 -187 44 0
-840 -187 158 0
-840 -187 -115 0
-840 -187 -121 0
-840 -187 -7 -139 0
-840 -187 -73 -175 0
-840 -187 -79 -175 0
-840 -187 -103 -193 0
-840 -187 -109 -193 0
-840 -187 247 463 571 0
-840 -43 -181 -151 0
-840 -43 -187 -157 0
-845 205 0
-845 -193 0
-845 -181 50 0
-845 -181 152 0
-845 -181 -121 0
-845 -181 -13 -133 0
-845 -181 -79 -169 0
-845 -181 -85 -169 0
-845 -181 -103 -187 0
-845 -181 -109 -187 0
-845 -181 -115 -187 0
-845 -181 259 475 583 0
-845 -187 50 0
-845 -187 158 0
-845 -187 -121 0
-845 -187 -13 -139 0
-845 -187 -79 -175 0
-845 -187 -85 -175 0
-845 -187 -103 -193 0
-845 -187 -109 -193 0
-845 -187 -115 -193 0
-845 -187 265 481 589 0
-845 -49 -181 -151 0
-845 -49 -187 -157 0
-850 205 0
-850 -193 0
-850 -181 56 0
-850 -181 152 0
-850 -181 -103 0
-850 -181 -19 -133 0
-850 -181 -85 -169 0
-850 -181 -91 -169 0
-850 -181 -109 -187 0
-850 -181 -115 -187 0
-850 -181 -121 -187 0
-850 -181 277 493 601 0
-850 -187 56 0
-850 -187 158 0
-850 -187 -103 0
-850 -187 -19 -139 0
-850 -187 -85 -175 0
-850 -187 -91 -175 0
-850 -187 -109 -193 0
-850 -187 -115 -193 0
-850 -187 -121 -193 0
-850 -187 283 499 607 0
-850 -55 -181 -151 0
-850 -55 -187 -157 0
-855 205 0
-855 -193 0
-855 -181 62 0
-855 -181 152 0
-855 -181 -103 0
-855 -181 -109 0
-855 -181 -25 -133 0
-855 -181 -91 -169 0
-855 -181 -97 -169 0
-855 -181 -115 -187 0
-855 -181 -121 -187 0
-855 -181 295 511 619 0
-855 -187 62 0
-855 -187 158 0
-855 -187 -103 0
-855 -187 -109 0
-855 -187 -25 -139 0
-855 -187 -91 -175 0
-855 -187 -97 -175 0
-855 -187 -115 -193 0
-855 -187 -121 -193 0
-855 -187 301 517 625 0
-855 -61 -181 -151 0
-855 -61 -187 -157 0
-860 205 0
-860 -193 0
-860 -181 68 0
-860 -181 152 0
-860 -181 -103 0
-860 -181 -109 0
-860 -181 -115 0
-860 -181 -31 -133 0
-860 -181 -97 -169 0
-860 -181 -121 -187 0
-860 -181 313 529 637 0
-860 -187 68 0
-860 -187 158 0
-860 -187 -103 0
-860 -187 -109 0
-860 -187 -115 0
-860 -187 -31 -139 0
-860 -187 -97 -175 0
-860 -187 -121 -193 0
-860 -187 319 535 643 0
-860 -67 -181 -151 0
-860 -67 -187 -157 0
-865 205 0
-865 38 0
-865 146 0
-865 -37 -145 0
-865 -1 -127 0
-865 -73 -163 0
-865 -103 -181 0
-870 205 0
-870 44 0
-870 146 0
-870 -43 -145 0
-870 -7 -127 0
-870 -73 -163 0
-870 -79 -163 0
-870 -103 -181 0
-870 -109 -181 0
-875 205 0
-875 50 0
-875 146 0
-875 -49 -145 0
-875 -13 -127 0
-875 -79 -163 0
-875 -85 -163 0
-875 -103 -181 0
-875 -109 -181 0
-875 -115 -181 0
-880 205 0
-880 56 0
-880 146 0
-880 -55 -145 0
-880 -19 -127 0
-880 -85 -163 0
-880 -91 -163 0
-880 -109 -181 0
-880 -115 -181 0
-880 -121 -181 0
-885 205 0
-885 62 0
-885 146 0
-885 -61 -145 0
-885 -25 -127 0
-885 -91 -163 0
-885 -97 -163 0
-885 -115 -181 0
-885 -121 -181 0
-890 205 0
-890 68 0
-890 146 0
-890 -67 -145 0
-890 -31 -127 0
-890 -97 -163 0
-890 -121 -181 0
-895 211 0
-895 -139 0
-895 -127 74 0
-895 -127 170 0
-895 -127 -13 0
-895 -127 -19 0
-895 -127 -25 0
-895 -127 -31 0
-895 -127 -1 -133 0
-895 -127 -7 -133 0
-895 -127 -37 -151 0
-895 -127 -43 -151 0
-895 -127 -103 -187 0
-895 -127 -109 -187 0
-895 -127 223 331 547 241 349 565 0
-895 -133 74 0
-895 -133 176 0
-895 -133 -13 0
-895 -133 -19 0
-895 -133 -25 0
-895 -133 -31 0
-895 -133 -1 -139 0
-895 -133 -7 -139 0
-895 -133 -37 -157 0
-895 -133 -43 -157 0
-895 -133 -103 -193 0
-895 -133 -109 -193 0
-895 -133 229 337 553 247 355 571 0
-895 -73 -127 -169 0
-895 -73 -133 -175 0
-900 211 0
-900 -139 0
-900 -127 80 0
-900 -127 170 0
-900 -127 -1 0
-900 -127 -19 0
-900 -127 -25 0
-900 -127 -31 0
-900 -127 -7 -133 0
-900 -127 -13 -133 0
-900 -127 -43 -151 0
-900 -127 -49 -151 0
-900 -127 -103 -187 0
-900 -127 -109 -187 0
-900 -127 -115 -187 0
-900 -127 241 349 565 259 367 583 0
-900 -133 80 0
-900 -133 176 0
-900 -133 -1 0
-900 -133 -19 0
-900 -133 -25 0
-900 -133 -31 0
-900 -133 -7 -139 0
-900 -133 -13 -139 0
-900 -133 -43 -157 0
-900 -133 -49 -157 0
-900 -133 -103 -193 0
-900 -133 -109 -193 0
-900 -133 -115 -193 0
-900 -133 247 355 571 265 373 589 0
-900 -79 -127 -169 0
-900 -79 -133 -175 0
-905 211 0
-905 -139 0
-905 -127 86 0
-905 -127 170 0
-905 -127 -1 0
-905 -127 -7 0
-905 -127 -25 0
-905 -127 -31 0
-905 -127 -13 -133 0
-905 -127 -19 -133 0
-905 -127 -49 -151 0
-905 -127 -55 -151 0
-905 -127 -103 -187 0
-905 -127 -109 -187 0
-905 -127 -115 -187 0
-905 -127 -121 -187 0
-905 -127 259 367 583 277 385 601 0
-905 -133 86 0
-905 -133 176 0
-905 -133 -1 0
-905 -133 -7 0
-905 -133 -25 0
-905 -133 -31 0
-905 -133 -13 -139 0
-905 -133 -19 -139 0
-905 -133 -49 -157 0
-905 -133 -55 -157 0
-905 -133 -103 -193 0
-905 -133 -109 -193 0
-905 -133 -115 -193 0
-905 -133 -121 -193 0
-905 -133 265 373 589 283 391 607 0
-905 -85 -127 -169 0
-905 -85 -133 -175 0
-910 211 0
-910 -139 0
-910 -127 92 0
-910 -127 170 0
-910 -127 -1 0
-910 -127 -7 0
-910 -127 -13 0
-910 -127 -31 0
-910 -127 -19 -133 0
-910 -127 -25 -133 0
-910 -127 -55 -151 0
-910 -127 -61 -151 0
-910 -127 -109 -187 0
-910 -127 -115 -187 0
-910 -127 -121 -187 0
-910 -127 277 385 601 295 403 619 0
-910 -133 92 0
-910 -133 176 0
-910 -133 -1 0
-910 -133 -7 0
-910 -133 -13 0
-910 -133 -31 0
-910 -133 -19 -139 0
-910 -133 -25 -139 0
-910 -133 -55 -157 0
-910 -133 -61 -157 0
-910 -133 -109 -193 0
-910 -133 -115 -193 0
-910 -133 -121 -193 0
-910 -133 283 391 607 301 409 625 0
-910 -91 -127 -169 0
-910 -91 -133 -175 0
-915 211 0
-915 -139 0
-915 -127 98 0
-915 -127 170 0
-915 -127 -1 0
-915 -127 -7 0
-915 -127 -13 0
-915 -127 -19 0
-915 -127 -25 -133 0
-915 -127 -31 -133 0
-915 -127 -61 -151 0
-915 -127 -67 -151 0
-915 -127 -115 -187 0
-915 -127 -121 -187 0
-915 -127 295 403 619 313 421 637 0
-915 -133 98 0
-915 -133 176 0
-915 -133 -1 0
-915 -133 -7 0
-915 -133 -13 0
-915 -133 -19 0
-915 -133 -25 -139 0
-915 -133 -31 -139 0
-915 -133 -61 -157 0
-915 -133 -67 -157 0
-915 -133 -115 -193 0
-915 -133 -121 -193 0
-915 -133 301 409 625 319 427 643 0
-915 -97 -127 -169 0
-915 -97 -133 -175 0
-920 211 0
-920 -157 0
-920 -145 74 0
-920 -145 170 0
-920 -145 -49 0
-920 -145 -55 0
-920 -145 -61 0
-920 -145 -67 0
-920 -145 -1 -133 0
-920 -145 -7 -133 0
-920 -145 -37 -151 0
-920 -145 -43 -151 0
-920 -145 -103 -187 0
-920 -145 -109 -187 0
-920 -145 223 331 547 241 349 565 0
-920 -151 74 0
-920 -151 176 0
-920 -151 -49 0
-920 -151 -55 0
-920 -151 -61 0
-920 -151 -67 0
-920 -151 -1 -139 0
-920 -151 -7 -139 0
-920 -151 -37 -157 0
-920 -151 -43 -157 0
-920 -151 -103 -193 0
-920 -151 -109 -193 0
-920 -151 229 337 553 247 355 571 0
-920 -73 -145 -169 0
-920 -73 -151 -175 0
-925 211 0
-925 -157 0
-925 -145 80 0
-925 -145 170 0
-925 -145 -37 0
-925 -145 -55 0
-925 -145 -61 0
-925 -145 -67 0
-925 -145 -7 -133 0
-925 -145 -13 -133 0
-925 -145 -43 -151 0
-925 -145 -49 -151 0
-925 -145 -103 -187 0
-925 -145 -109 -187 0
-925 -145 -115 -187 0
-925 -145 241 349 565 259 367 583 0
-925 -151 80 0
-925 -151 176 0
-925 -151 -37 0
-925 -151 -55 0
-925 -151 -61 0
-925 -151 -67 0
-925 -151 -7 -139 0
-925 -151 -13 -139 0
-925 -151 -43 -157 0
-925 -151 -49 -157 0
-925 -151 -103 -193 0
-925 -151 -109 -193 0
-925 -151 -115 -193 0
-925 -151 247 355 571 265 373 589 0
-925 -79 -145 -169 0
-925 -79 -151 -175 0
-930 211 0
-930 -157 0
-930 -145 86 0
-930 -145 170 0
-930 -145 -37 0
-930 -145 -43 0
-930 -145 -61 0
-930 -145 -67 0
-930 -145 -13 -133 0
-930 -145 -19 -133 0
-930 -145 -49 -151 0
-930 -145 -55 -151 0
-930 -145 -103 -187 0
-930 -145 -109 -187 0
-930 -145 -115 -187 0
-930 -145 -121 -187 0
-930 -145 259 367 583 277 385 601 0
-930 -151 86 0
-930 -151 176 0
-930 -151 -37 0
-930 -151 -43 0
-930 -151 -61 0
-930 -151 -67 0
-930 -151 -13 -139 0
-930 -151 -19 -139 0
-930 -151 -49 -157 0
-930 -151 -55 -157 0
-930 -151 -103 -193 0
-930 -151 -109 -193 0
-930 -151 -115 -193 0
-930 -151 -121 -193 0
-930 -151 265 373 589 283 391 607 0
-930 -85 -145 -169 0
-930 -85 -151 -175 0
-935 211 0
-935 -157 0
-935 -145 92 0
-935 -145 170 0
-935 -145 -37 0
-935 -145 -43 0
-935 -145 -49 0
-935 -145 -67 0
-935 -145 -19 -133 0
-935 -145 -25 -133 0
-935 -145 -55 -151 0
-935 -145 -61 -151 0
-935 -145 -109 -187 0
-935 -145 -115 -187 0
-935 -145 -121 -187 0
-935 -145 277 385 601 295 403 619 0
-935 -151 92 0
-935 -151 176 0
-935 -151 -37 0
-935 -151 -43 0
-935 -151 -49 0
-935 -151 -67 0
-935 -151 -19 -139 0
-935 -151 -25 -139 0
-935 -151 -55 -157 0
-935 -151 -61 -157 0
-935 -151 -109 -193 0
-935 -151 -115 -193 0
-935 -151 -121 -193 0
-935 -151 283 391 607 301 409 625 0
-935 -91 -145 -169 0
-935 -91 -151 -175 0
-940 211 0
-940 -157 0
-940 -145 98 0
-940 -145 170 0
-940 -145 -37 0
-940 -145 -43 0
-940 -145 -49 0
-940 -145 -55 0
-940 -145 -25 -133 0
-940 -145 -31 -133 0
-940 -145 -61 -151 0
-940 -145 -67 -151 0
-940 -145 -115 -187 0
-940 -145 -121 -187 0
-940 -145 295 403 619 313 421 637 0
-940 -151 98 0
-940 -151 176 0
-940 -151 -37 0
-940 -151 -43 0
-940 -151 -49 0
-940 -151 -55 0
-940 -151 -25 -139 0
-940 -151 -31 -139 0
-940 -151 -61 -157 0
-940 -151 -67 -157 0
-940 -151 -115 -193 0
-940 -151 -121 -193 0
-940 -151 301 409 625 319 427 643 0
-940 -97 -145 -169 0
-940 -97 -151 -175 0
-945 211 0
-945 -193 0
-945 -181 74 0
-945 -181 170 0
-945 -181 -115 0
-945 -181 -121 0
-945 -181 -1 -133 0
-945 -181 -7 -133 0
-945 -181 -37 -151 0
-945 -181 -43 -151 0
-945 -181 -103 -187 0
-945 -181 -109 -187 0
-945 -181 223 331 547 241 349 565 0
-945 -187 74 0
-945 -187 176 0
-945 -187 -115 0
-945 -187 -121 0
-945 -187 -1 -139 0
-945 -187 -7 -139 0
-945 -187 -37 -157 0
-945 -187 -43 -157 0
-945 -187 -103 -193 0
-945 -187 -109 -193 0
-945 -187 229 337 553 247 355 571 0
-945 -73 -181 -169 0
-945 -73 -187 -175 0
-950 211 0
-950 -193 0
-950 -181 80 0
-950 -181 170 0
-950 -181 -121 0
-950 -181 -7 -133 0
-950 -181 -13 -133 0
-950 -181 -43 -151 0
-950 -181 -49 -151 0
-950 -181 -103 -187 0
-950 -181 -109 -187 0
-950 -181 -115 -187 0
-950 -181 241 349 565 259 367 583 0
-950 -187 80 0
-950 -187 176 0
-950 -187 -121 0
-950 -187 -7 -139 0
-950 -187 -13 -139 0
-950 -187 -43 -157 0
-950 -187 -49 -157 0
-950 -187 -103 -193 0
-950 -187 -109 -193 0
-950 -187 -115 -193 0
-950 -187 247 355 571 265 373 589 0
-950 -79 -181 -169 0
-950 -79 -187 -175 0
-955 211 0
-955 -193 0
-955 -181 86 0
-955 -181 170 0
-955 -181 -13 -133 0
-955 -181 -19 -133 0
-955 -181 -49 -151 0
-955 -181 -55 -151 0
-955 -181 -103 -187 0
-955 -181 -109 -187 0
-955 -181 -115 -187 0
-955 -181 -121 -187 0
-955 -181 259 367 583 277 385 601 0
-955 -187 86 0
-955 -187 176 0
-955 -187 -13 -139 0
-955 -187 -19 -139 0
-955 -187 -49 -157 0
-955 -187 -55 -157 0
-955 -187 -103 -193 0
-955 -187 -109 -193 0
-955 -187 -115 -193 0
-955 -187 -121 -193 0
-955 -187 265 373 589 283 391 607 0
-955 -85 -181 -169 0
-955 -85 -187 -175 0
-960 211 0
-960 -193 0
-960 -181 92 0
-960 -181 170 0
-960 -181 -103 0
-960 -181 -19 -133 0
-960 -181 -25 -133 0
-960 -181 -55 -151 0
-960 -181 -61 -151 0
-960 -181 -109 -187 0
-960 -181 -115 -187 0
-960 -181 -121 -187 0
-960 -181 277 385 601 295 403 619 0
-960 -187 92 0
-960 -187 176 0
-960 -187 -103 0
-960 -187 -19 -139 0
-960 -187 -25 -139 0
-960 -187 -55 -157 0
-960 -187 -61 -157 0
-960 -187 -109 -193 0
-960 -187 -115 -193 0
-960 -187 -121 -193 0
-960 -187 283 391 607 301 409 625 0
-960 -91 -181 -169 0
-960 -91 -187 -175 0
-965 211 0
-965 -193 0
-965 -181 98 0
-965 -181 170 0
-965 -181 -103 0
-965 -181 -109 0
-965 -181 -25 -133 0
-965 -181 -31 -133 0
-965 -181 -61 -151 0
-965 -181 -67 -151 0
-965 -181 -115 -187 0
-965 -181 -121 -187 0
-965 -181 295 403 619 313 421 637 0
-965 -187 98 0
-965 -187 176 0
-965 -187 -103 0
-965 -187 -109 0
-965 -187 -25 -139 0
-965 -187 -31 -139 0
-965 -187 -61 -157 0
-965 -187 -67 -157 0
-965 -187 -115 -193 0
-965 -187 -121 -193 0
-965 -187 301 409 625 319 427 643 0
-965 -97 -181 -169 0
-965 -97 -187 -175 0
-970 211 0
-970 74 0
-970 164 0
-970 -73 -163 0
-970 -1 -127 0
-970 -7 -127 0
-970 -37 -145 0
-970 -43 -145 0
-970 -103 -181 0
-970 -109 -181 0
-975 211 0
-975 80 0
-975 164 0
-975 -79 -163 0
-975 -7 -127 0
-975 -13 -127 0
-975 -43 -145 0
-975 -49 -145 0
-975 -103 -181 0
-975 -109 -181 0
-975 -115 -181 0
-980 211 0
-980 86 0
-980 164 0
-980 -85 -163 0
-980 -13 -127 0
-980 -19 -127 0
-980 -49 -145 0
-980 -55 -145 0
-980 -103 -181 0
-980 -109 -181 0
-980 -115 -181 0
-980 -121 -181 0
-985 211 0
-985 92 0
-985 164 0
-985 -91 -163 0
-985 -19 -127 0
-985 -25 -127 0
-985 -55 -145 0
-985 -61 -145 0
-985 -109 -181 0
-985 -115 -181 0
-985 -121 -181 0
-990 211 0
-990 98 0
-990 164 0
-990 -97 -163 0
-990 -25 -127 0
-990 -31 -127 0
-990 -61 -145 0
-990 -67 -145 0
-990 -115 -181 0
-990 -121 -181 0
-995 217 0
-995 -139 0
-995 -127 104 0
-995 -127 188 0
-995 -127 -19 0
-995 -127 -25 0
-995 -127 -31 0
-995 -127 -1 -133 0
-995 -127 -7 -133 0
-995 -127 -13 -133 0
-995 -127 -37 -151 0
-995 -127 -43 -151 0
-995 -127 -49 -151 0
-995 -127 -73 -169 0
-995 -127 -79 -169 0
-995 -127 -85 -169 0
-995 -127 223 331 439 241 349 457 0
-995 -127 223 331 439 259 367 475 0
-995 -127 241 349 457 259 367 475 0
-995 -133 104 0
-995 -133 194 0
-995 -133 -19 0
-995 -133 -25 0
-995 -133 -31 0
-995 -133 -1 -139 0
-995 -133 -7 -139 0
-995 -133 -13 -139 0
-995 -133 -37 -157 0
-995 -133 -43 -157 0
-995 -133 -49 -157 0
-995 -133 -73 -175 0
-995 -133 -79 -175 0
-995 -133 -85 -175 0
-995 -133 229 337 445 247 355 463 0
-995 -133 229 337 445 265 373 481 0
-995 -133 247 355 463 265 373 481 0
-995 -103 -127 -187 0
-995 -103 -133 -193 0
-1000 217 0
-1000 -139 0
-1000 -127 110 0
-1000 -127 188 0
-1000 -127 -1 0
-1000 -127 -25 0
-1000 -127 -31 0
-1000 -127 -7 -133 0
-1000 -127 -13 -133 0
-1000 -127 -19 -133 0
-1000 -127 -43 -151 0
-1000 -127 -49 -151 0
-1000 -127 -55 -151 0
-1000 -127 -73 -169 0
-1000 -127 -79 -169 0
-1000 -127 -85 -169 0
-1000 -127 -91 -169 0
-1000 -127 241 349 457 259 367 475 0
-1000 -127 241 349 457 277 385 493 0
-1000 -127 259 367 475 277 385 493 0
-1000 -133 110 0
-1000 -133 194 0
-1000 -133 -1 0
-1000 -133 -25 0
-1000 -133 -31 0
-1000 -133 -7 -139 0
-1000 -133 -13 -139 0
-1000 -133 -19 -139 0
-1000 -133 -43 -157 0
-1000 -133 -49 -157 0
-1000 -133 -55 -157 0
-1000 -133 -73 -175 0
-1000 -133 -79 -175 0
-1000 -133 -85 -175 0
-1000 -133 -91 -175 0
-1000 -133 247 355 463 265 373 481 0
-1000 -133 247 355 463 283 391 499 0
-1000 -133 265 373 481 283 391 499 0
-1000 -109 -127 -187 0
-1000 -109 -133 -193 0
-1005 217 0
-1005 -139 0
-1005 -127 116 0
-1005 -127 188 0
-1005 -127 -1 0
-1005 -127 -7 0
-1005 -127 -31 0
-1005 -127 -13 -133 0
-1005 -127 -19 -133 0
-1005 -127 -25 -133 0
-1005 -127 -49 -151 0
-1005 -127 -55 -151 0
-1005 -127 -61 -151 0
-1005 -127 -79 -169 0
-1005 -127 -85 -169 0
-1005 -127 -91 -169 0
-1005 -127 -97 -169 0
-1005 -127 259 367 475 277 385 493 0
-1005 -127 259 367 475 295 403 511 0
-1005 -127 277 385 493 295 403 511 0
-1005 -133 116 0
-1005 -133 194 0
-1005 -133 -1 0
-1005 -133 -7 0
-1005 -133 -31 0
-1005 -133 -13 -139 0
-1005 -133 -19 -139 0
-1005 -133 -25 -139 0
-1005 -133 -49 -157 0
-1005 -133 -55 -157 0
-1005 -133 -61 -157 0
-1005 -133 -79 -175 0
-1005 -133 -85 -175 0
-1005 -133 -91 -175 0
-1005 -133 -97 -175 0
-1005 -133 265 373 481 283 391 499 0
-1005 -133 265 373 481 301 409 517 0
-1005 -133 283 391 499 301 409 517 0
-1005 -115 -127 -187 0
-1005 -115 -133 -193 0
-1010 217 0
-1010 -139 0
-1010 -127 122 0
-1010 -127 188 0
-1010 -127 -1 0
-1010 -127 -7 0
-1010 -127 -13 0
-1010 -127 -19 -133 0
-1010 -127 -25 -133 0
-1010 -127 -31 -133 0
-1010 -127 -55 -151 0
-1010 -127 -61 -151 0
-1010 -127 -67 -151 0
-1010 -127 -85 -169 0
-1010 -127 -91 -169 0
-1010 -127 -97 -169 0
-1010 -127 277 385 493 295 403 511 0
-1010 -127 277 385 493 313 421 529 0
-1010 -127 295 403 511 313 421 529 0
-1010 -133 122 0
-1010 -133 194 0
-1010 -133 -1 0
-1010 -133 -7 0
-1010 -133 -13 0
-1010 -133 -19 -139 0
-1010 -133 -25 -139 0
-1010 -133 -31 -139 0
-1010 -133 -55 -157 0
-1010 -133 -61 -157 0
-1010 -133 -67 -157 0
-1010 -133 -85 -175 0
-1010 -133 -91 -175 0
-1010 -133 -97 -175 0
-1010 -133 283 391 499 301 409 517 0
-1010 -133 283 391 499 319 427 535 0
-1010 -133 301 409 517 319 427 535 0
-1010 -121 -127 -187 0
-1010 -121 -133 -193 0
-1015 217 0
-1015 -157 0
-1015 -145 104 0
-1015 -145 188 0
-1015 -145 -55 0
-1015 -145 -61 0
-1015 -145 -67 0
-1015 -145 -1 -133 0
-1015 -145 -7 -133 0
-1015 -145 -13 -133 0
-1015 -145 -37 -151 0
-1015 -145 -43 -151 0
-1015 -145 -49 -151 0
-1015 -145 -73 -169 0
-1015 -145 -79 -169 0
-1015 -145 -85 -169 0
-1015 -145 223 331 439 241 349 457 0
-1015 -145 223 331 439 259 367 475 0
-1015 -145 241 349 457 259 367 475 0
-1015 -151 104 0
-1015 -151 194 0
-1015 -151 -55 0
-1015 -151 -61 0
-1015 -151 -67 0
-1015 -151 -1 -139 0
-1015 -151 -7 -139 0
-1015 -151 -13 -139 0
-1015 -151 -37 -157 0
-1015 -151 -43 -157 0
-1015 -151 -49 -157 0
-1015 -151 -73 -175 0
-1015 -151 -79 -175 0
-1015 -151 -85 -175 0
-1015 -151 229 337 445 247 355 463 0
-1015 -151 229 337 445 265 373 481 0
-1015 -151 247 355 463 265 373 481 0
-1015 -103 -145 -187 0
-1015 -103 -151 -193 0
-1020 217 0
-1020 -157 0
-1020 -145 110 0
-1020 -145 188 0
-1020 -145 -37 0
-1020 -145 -61 0
-1020 -145 -67 0
-1020 -145 -7 -133 0
-1020 -145 -13 -133 0
-1020 -145 -19 -133 0
-1020 -145 -43 -151 0
-1020 -145 -49 -151 0
-1020 -145 -55 -151 0
-1020 -145 -73 -169 0
-1020 -145 -79 -169 0
-1020 -145 -85 -169 0
-1020 -145 -91 -169 0
-1020 -145 241 349 457 259 367 475 0
-1020 -145 241 349 457 277 385 493 0
-1020 -145 259 367 475 277 385 493 0
-1020 -151 110 0
-1020 -151 194 0
-1020 -151 -37 0
-1020 -151 -61 0
-1020 -151 -67 0
-1020 -151 -7 -139 0
-1020 -151 -13 -139 0
-1020 -151 -19 -139 0
-1020 -151 -43 -157 0
-1020 -151 -49 -157 0
-1020 -151 -55 -157 0
-1020 -151 -73 -175 0
-1020 -151 -79 -175 0
-1020 -151 -85 -175 0
-1020 -151 -91 -175 0
-1020 -151 247 355 463 265 373 481 0
-1020 -151 247 355 463 283 391 499 0
-1020 -151 265 373 481 283 391 499 0
-1020 -109 -145 -187 0
-1020 -109 -151 -193 0
-1025 217 0
-1025 -157 0
-1025 -145 116 0
-1025 -145 188 0
-1025 -145 -37 0
-1025 -145 -43 0
-1025 -145 -67 0
-1025 -145 -13 -133 0
-1025 -145 -19 -133 0
-1025 -145 -25 -133 0
-1025 -145 -49 -151 0
-1025 -145 -55 -151 0
-1025 -145 -61 -151 0
-1025 -145 -79 -169 0
-1025 -145 -85 -169 0
-1025 -145 -91 -169 0
-1025 -145 -97 -169 0
-1025 -145 259 367 475 277 385 493 0
-1025 -145 259 367 475 295 403 511 0
-1025 -145 277 385 493 295 403 511 0
-1025 -151 116 0
-1025 -151 194 0
-1025 -151 -37 0
-1025 -151 -43 0
-1025 -151 -67 0
-1025 -151 -13 -139 0
-1025 -151 -19 -139 0
-1025 -151 -25 -139 0
-1025 -151 -49 -157 0
-1025 -151 -55 -157 0
-1025 -151 -61 -157 0
-1025 -151 -79 -175 0
-1025 -151 -85 -175 0
-1025 -151 -91 -175 0
-1025 -151 -97 -175 0
-1025 -151 265 373 481 283 391 499 0
-1025 -151 265 373 481 301 409 517 0
-1025 -151 283 391 499 301 409 517 0
-1025 -115 -145 -187 0
-1025 -115 -151 -193 0
-1030 217 0
-1030 -157 0
-1030 -145 122 0
-1030 -145 188 0
-1030 -145 -37 0
-1030 -145 -43 0
-1030 -145 -49 0
-1030 -145 -19 -133 0
-1030 -145 -25 -133 0
-1030 -145 -31 -133 0
-1030 -145 -55 -151 0
-1030 -145 -61 -151 0
-1030 -145 -67 -151 0
-1030 -145 -85 -169 0
-1030 -145 -91 -169 0
-1030 -145 -97 -169 0
-1030 -145 277 385 493 295 403 511 0
-1030 -145 277 385 493 313 421 529 0
-1030 -145 295 403 511 313 421 529 0
-1030 -151 122 0
-1030 -151 194 0
-1030 -151 -37 0
-1030 -151 -43 0
-1030 -151 -49 0
-1030 -151 -19 -139 0
-1030 -151 -25 -139 0
-1030 -151 -31 -139 0
-1030 -151 -55 -157 0
-1030 -151 -61 -157 0
-1030 -151 -67 -157 0
-1030 -151 -85 -175 0
-1030 -151 -91 -175 0
-1030 -151 -97 -175 0
-1030 -151 283 391 499 301 409 517 0
-1030 -151 283 391 499 319 427 535 0
-1030 -151 301 409 517 319 427 535 0
-1030 -121 -145 -187 0
-1030 -121 -151 -193 0
-1035 217 0
-1035 -175 0
-1035 -163 104 0
-1035 -163 188 0
-1035 -163 -91 0
-1035 -163 -97 0
-1035 -163 -1 -133 0
-1035 -163 -7 -133 0
-1035 -163 -13 -133 0
-1035 -163 -37 -151 0
-1035 -163 -43 -151 0
-1035 -163 -49 -151 0
-1035 -163 -73 -169 0
-1035 -163 -79 -169 0
-1035 -163 -85 -169 0
-1035 -163 223 331 439 241 349 457 0
-1035 -163 223 331 439 259 367 475 0
-1035 -163 241 349 457 259 367 475 0
-1035 -169 104 0
-1035 -169 194 0
-1035 -169 -91 0
-1035 -169 -97 0
-1035 -169 -1 -139 0
-1035 -169 -7 -139 0
-1035 -169 -13 -139 0
-1035 -169 -37 -157 0
-1035 -169 -43 -157 0
-1035 -169 -49 -157 0
-1035 -169 -73 -175 0
-1035 -169 -79 -175 0
-1035 -169 -85 -175 0
-1035 -169 229 337 445 247 355 463 0
-1035 -169 229 337 445 265 373 481 0
-1035 -169 247 355 463 265 373 481 0
-1035 -103 -163 -187 0
-1035 -103 -169 -193 0
-1040 217 0
-1040 -175 0
-1040 -163 110 0
-1040 -163 188 0
-1040 -163 -97 0
-1040 -163 -7 -133 0
-1040 -163 -13 -133 0
-1040 -163 -19 -133 0
-1040 -163 -43 -151 0
-1040 -163 -49 -151 0
-1040 -163 -55 -151 0
-1040 -163 -73 -169 0
-1040 -163 -79 -169 0
-1040 -163 -85 -169 0
-1040 -163 -91 -169 0
-1040 -163 241 349 457 259 367 475 0
-1040 -163 241 349 457 277 385 493 0
-1040 -163 259 367 475 277 385 493 0
-1040 -169 110 0
-1040 -169 194 0
-1040 -169 -97 0
-1040 -169 -7 -139 0
-1040 -169 -13 -139 0
-1040 -169 -19 -139 0
-1040 -169 -43 -157 0
-1040 -169 -49 -157 0
-1040 -169 -55 -157 0
-1040 -169 -73 -175 0
-1040 -169 -79 -175 0
-1040 -169 -85 -175 0
-1040 -169 -91 -175 0
-1040 -169 247 355 463 265 373 481 0
-1040 -169 247 355 463 283 391 499 0
-1040 -169 265 373 481 283 391 499 0
-1040 -109 -163 -187 0
-1040 -109 -169 -193 0
-1045 217 0
-1045 -175 0
-1045 -163 116 0
-1045 -163 188 0
-1045 -163 -73 0
-1045 -163 -13 -133 0
-1045 -163 -19 -133 0
-1045 -163 -25 -133 0
-1045 -163 -49 -151 0
-1045 -163 -55 -151 0
-1045 -163 -61 -151 0
-1045 -163 -79 -169 0
-1045 -163 -85 -169 0
-1045 -163 -91 -169 0
-1045 -163 -97 -169 0
-1045 -163 259 367 475 277 385 493 0
-1045 -163 259 367 475 295 403 511 0
-1045 -163 277 385 493 295 403 511 0
-1045 -169 116 0
-1045 -169 194 0
-1045 -169 -73 0
-1045 -169 -13 -139 0
-1045 -169 -19 -139 0
-1045 -169 -25 -139 0
-1045 -169 -49 -157 0
-1045 -169 -55 -157 0
-1045 -169 -61 -157 0
-1045 -169 -79 -175 0
-1045 -169 -85 -175 0
-1045 -169 -91 -175 0
-1045 -169 -97 -175 0
-1045 -169 265 373 481 283 391 499 0
-1045 -169 265 373 481 301 409 517 0
-1045 -169 283 391 499 301 409 517 0
-1045 -115 -163 -187 0
-1045 -115 -169 -193 0
-1050 217 0
-1050 -175 0
-1050 -163 122 0
-1050 -163 188 0
-1050 -163 -73 0
-1050 -163 -79 0
-1050 -163 -19 -133 0
-1050 -163 -25 -133 0
-1050 -163 -31 -133 0
-1050 -163 -55 -151 0
-1050 -163 -61 -151 0
-1050 -163 -67 -151 0
-1050 -163 -85 -169 0
-1050 -163 -91 -169 0
-1050 -163 -97 -169 0
-1050 -163 277 385 493 295 403 511 0
-1050 -163 277 385 493 313 421 529 0
-1050 -163 295 403 511 313 421 529 0
-1050 -169 122 0
-1050 -169 194 0
-1050 -169 -73 0
-1050 -169 -79 0
-1050 -169 -19 -139 0
-1050 -169 -25 -139 0
-1050 -169 -31 -139 0
-1050 -169 -55 -157 0
-1050 -169 -61 -157 0
-1050 -169 -67 -157 0
-1050 -169 -85 -175 0
-1050 -169 -91 -175 0
-1050 -169 -97 -175 0
-1050 -169 283 391 499 301 409 517 0
-1050 -169 283 391 499 319 427 535 0
-1050 -169 301 409 517 319 427 535 0
-1050 -121 -163 -187 0
-1050 -121 -169 -193 0
-1055 217 0
-1055 104 0
-1055 182 0
-1055 -103 -181 0
-1055 -1 -127 0
-1055 -7 -127 0
-1055 -13 -127 0
-1055 -37 -145 0
-1055 -43 -145 0
-1055 -49 -145 0
-1055 -73 -163 0
-1055 -79 -163 0
-1055 -85 -163 0
-1060 217 0
-1060 110 0
-1060 182 0
-1060 -109 -181 0
-1060 -7 -127 0
-1060 -13 -127 0
-1060 -19 -127 0
-1060 -43 -145 0
-1060 -49 -145 0
-1060 -55 -145 0
-1060 -73 -163 0
-1060 -79 -163 0
-1060 -85 -163 0
-1060 -91 -163 0
-1065 217 0
-1065 116 0
-1065 182 0
-1065 -115 -181 0
-1065 -13 -127 0
-1065 -19 -127 0
-1065 -25 -127 0
-1065 -49 -145 0
-1065 -55 -145 0
-1065 -61 -145 0
-1065 -79 -163 0
-1065 -85 -163 0
-1065 -91 -163 0
-1065 -97 -163 0
-1070 217 0
-1070 122 0
-1070 182 0
-1070 -121 -181 0
-1070 -19 -127 0
-1070 -25 -127 0
-1070 -31 -127 0
-1070 -55 -145 0
-1070 -61 -145 0
-1070 -67 -145 0
-1070 -85 -163 0
-1070 -91 -163 0
-1070 -97 -163 0
656 661 666 671 676 681 686 691 696 701 706 711 716 721 726 731 736 741 746 751 756 761 766 771 776 781 786 791 796 801 806 811 816 821 826 831 836 841 846 851 856 861 866 871 876 881 886 891 896 901 906 911 916 921 926 931 936 941 946 951 956 961 966 971 976 981 986 991 996 1001 1006 1011 1016 1021 1026 1031 1036 1041 1046 1051 1056 1061 1066 1071 0
-656 -661 0
-656 -666 0
-656 -671 0
-656 -676 0
-656 -681 0
-656 -686 0
-656 -691 0
-656 -696 0
-656 -701 0
-656 -706 0
-656 -711 0
-656 -716 0
-656 -721 0
-656 -726 0
-656 -731 0
-656 -736 0
-656 -741 0
-656 -746 0
-656 -751 0
-656 -756 0
-656 -761 0
-656 -766 0
-656 -771 0
-656 -776 0
-656 -781 0
-656 -786 0
-656 -791 0
-656 -796 0
-656 -801 0
-656 -806 0
-656 -811 0
-656 -816 0
-656 -821 0
-656 -826 0
-656 -831 0
-656 -836 0
-656 -841 0
-656 -846 0
-656 -851 0
-656 -856 0
-656 -861 0
-656 -866 0
-656 -871 0
-656 -876 0
-656 -881 0
-656 -886 0
-656 -891 0
-656 -896 0
-656 -901 0
-656 -906 0
-656 -911 0
-656 -916 0
-656 -921 0
-656 -926 0
-656 -931 0
-656 -936 0
-656 -941 0
-656 -946 0
-656 -951 0
-656 -956 0
-656 -961 0
-656 -966 0
-656 -971 0
-656 -976 0
-656 -981 0
-656 -986 0
-656 -991 0
-656 -996 0
-656 -1001 0
-656 -1006 0
-656 -1011 0
-656 -1016 0
-656 -1021 0
-656 -1026 0
-656 -1031 0
-656 -1036 0
-656 -1041 0
-656 -1046 0
-656 -1051 0
-656 -1056 0
-656 -1061 0
-656 -1066 0
-656 -1071 0
-661 -666 0
-661 -671 0
-661 -676 0
-661 -681 0
-661 -686 0
-661 -691 0
-661 -696 0
-661 -701 0
-661 -706 0
-661 -711 0
-661 -716 0
-661 -721 0
-661 -726 0
-661 -731 0
-661 -736 0
-661 -741 0
-661 -746 0
-661 -751 0
-661 -756 0
-661 -761 0
-661 -766 0
-661 -771 0
-661 -776 0
-661 -781 0
-661 -786 0
-661 -791 0
-661 -796 0
-661 -801 0
-661 -806 0
-661 -811 0
-661 -816 0
-661 -821 0
-661 -826 0
-661 -831 0
-661 -836 0
-661 -841 0
-661 -846 0
-661 -851 0
-661 -856 0
-661 -861 0
-661 -866 0
-661 -871 0
-661 -876 0
-661 -881 0
-661 -886 0
-661 -891 0
-661 -896 0
-661 -901 0
-661 -906 0
-661 -911 0
-661 -916 0
-661 -921 0
-661 -926 0
-661 -931 0
-661 -936 0
-661 -941 0
-661 -946 0
-661 -951 0
-661 -956 0
-661 -961 0
-661 -966 0
-661 -971 0
-661 -976 0
-661 -981 0
-661 -986 0
-661 -991 0
-661 -996 0
-661 -1001 0
-661 -1006 0
-661 -1011 0
-661 -1016 0
-661 -1021 0
-661 -1026 0
-661 -1031 0
-661 -1036 0
-661 -1041 0
-661 -1046 0
-661 -1051 0
-661 -1056 0
-661 -1061 0
-661 -1066 0
-661 -1071 0
-666 -671 0
-666 -676 0
-666 -681 0
-666 -686 0
-666 -691 0
-666 -696 0
-666 -701 0
-666 -706 0
-666 -711 0
-666 -716 0
-666 -721 0
-666 -726 0
-666 -731 0
-666 -736 0
-666 -741 0
-666 -746 0
-666 -751 0
-666 -756 0
-666 -761 0
-666 -766 0
-666 -771 0
-666 -776 0
-666 -781 0
-666 -786 0
-666 -791 0
-666 -796 0
-666 -801 0
-666 -806 0
-666 -811 0
-666 -816 0
-666 -821 0
-666 -826 0
-666 -831 0
-666 -836 0
-666 -841 0
-666 -846 0
-666 -851 0
-666 -856 0
-666 -861 0
-666 -866 0
-666 -871 0
-666 -876 0
-666 -881 0
-666 -886 0
-666 -891 0
-666 -896 0
-666 -901 0
-666 -906 0
-666 -911 0
-666 -916 0
-666 -921 0
-666 -926 0
-666 -931 0
-666 -936 0
-666 -941 0
-666 -946 0
-666 -951 0
-666 -956 0
-666 -961 0
-666 -966 0
-666 -971 0
-666 -976 0
-666 -981 0
-666 -986 0
-666 -991 0
-666 -996 0
-666 -1001 0
-666 -1006 0
-666 -1011 0
-666 -1016 0
-666 -1021 0
-666 -1026 0
-666 -1031 0
-666 -1036 0
-666 -1041 0
-666 -1046 0
-666 -1051 0
-666 -1056 0
-666 -1061 0
-666 -1066 0
-666 -1071 0
-671 -676 0
-671 -681 0
-671 -686 0
-671 -691 0
-671 -696 0
-671 -701 0
-671 -706 0
-671 -711 0
-671 -716 0
-671 -721 0
-671 -726 0
-671 -731 0
-671 -736 0
-671 -741 0
-671 -746 0
-671 -751 0
-671 -756 0
-671 -761 0
-671 -766 0
-671 -771 0
-671 -776 0
-671 -781 0
-671 -786 0
-671 -791 0
-671 -796 0
-671 -801 0
-671 -806 0
-671 -811 0
-671 -816 0
-671 -821 0
-671 -826 0
-671 -831 0
-671 -836 0
-671 -841 0
-671 -846 0
-671 -851 0
-671 -856 0
-671 -861 0
-671 -866 0
-671 -871 0
-671 -876 0
-671 -881 0
-671 -886 0
-671 -891 0
-671 -896 0
-671 -901 0
-671 -906 0
-671 -911 0
-671 -916 0
-671 -921 0
-671 -926 0
-671 -931 0
-671 -936 0
-671 -941 0
-671 -946 0
-671 -951 0
-671 -956 0
-671 -961 0
-671 -966 0
-671 -971 0
-671 -976 0
-671 -981 0
-671 -986 0
-671 -991 0
-671 -996 0
-671 -1001 0
-671 -1006 0
-671 -1011 0
-671 -1016 0
-671 -1021 0
-671 -1026 0
-671 -1031 0
-671 -1036 0
-671 -1041 0
-671 -1046 0
-671 -1051 0
-671 -1056 0
-671 -1061 0
-671 -1066 0
-671 -1071 0
-676 -681 0
-676 -686 0
-676 -691 0
-676 -696 0
-676 -701 0
-676 -706 0
-676 -711 0
-676 -716 0
-676 -721 0
-676 -726 0
-676 -731 0
-676 -736 0
-676 -741 0
-676 -746 0
-676 -751 0
-676 -756 0
-676 -761 0
-676 -766 0
-676 -771 0
-676 -776 0
-676 -781 0
-676 -786 0
-676 -791 0
-676 -796 0
-676 -801 0
-676 -806 0
-676 -811 0
-676 -816 0
-676 -821 0
-676 -826 0
-676 -831 0
-676 -836 0
-676 -841 0
-676 -846 0
-676 -851 0
-676 -856 0
-676 -861 0
-676 -866 0
-676 -871 0
-676 -876 0
-676 -881 0
-676 -886 0
-676 -891 0
-676 -896 0
-676 -901 0
-676 -906 0
-676 -911 0
-676 -916 0
-676 -921 0
-676 -926 0
-676 -931 0
-676 -936 0
-676 -941 0
-676 -946 0
-676 -951 0
-676 -956 0
-676 -961 0
-676 -966 0
-676 -971 0
-676 -976 0
-676 -981 0
-676 -986 0
-676 -991 0
-676 -996 0
-676 -1001 0
-676 -1006 0
-676 -1011 0
-676 -1016 0
-676 -1021 0
-676 -1026 0
-676 -1031 0
-676 -1036 0
-676 -1041 0
-676 -1046 0
-676 -1051 0
-676 -1056 0
-676 -1061 0
-676 -1066 0
-676 -1071 0
-681 -686 0
-681 -691 0
-681 -696 0
-681 -701 0
-681 -706 0
-681 -711 0
-681 -716 0
-681 -721 0
-681 -726 0
-681 -731 0
-681 -736 0
-681 -741 0
-681 -746 0
-681 -751 0
-681 -756 0
-681 -761 0
-681 -766 0
-681 -771 0
-681 -776 0
-681 -781 0
-681 -786 0
-681 -791 0
-681 -796 0
-681 -801 0
-681 -806 0
-681 -811 0
-681 -816 0
-681 -821 0
-681 -826 0
-681 -831 0
-681 -836 0
-681 -841 0
-681 -846 0
-681 -851 0
-681 -856 0
-681 -861 0
-681 -866 0
-681 -871 0
-681 -876 0
-681 -881 0
-681 -886 0
-681 -891 0
-681 -896 0
-681 -901 0
-681 -906 0
-681 -911 0
-681 -916 0
-681 -921 0
-681 -926 0
-681 -931 0
-681 -936 0
-681 -941 0
-681 -946 0
-681 -951 0
-681 -956 0
-681 -961 0
-681 -966 0
-681 -971 0
-681 -976 0
-681 -981 0
-681 -986 0
-681 -991 0
-681 -996 0
-681 -1001 0
-681 -1006 0
-681 -1011 0
-681 -1016 0
-681 -1021 0
-681 -1026 0
-681 -1031 0
-681 -1036 0
-681 -1041 0
-681 -1046 0
-681 -1051 0
-681 -1056 0
-681 -1061 0
-681 -1066 0
-681 -1071 0
-686 -691 0
-686 -696 0
-686 -701 0
-686 -706 0
-686 -711 0
-686 -716 0
-686 -721 0
-686 -726 0
-686 -731 0
-686 -736 0
-686 -741 0
-686 -746 0
-686 -751 0
-686 -756 0
-686 -761 0
-686 -766 0
-686 -771 0
-686 -776 0
-686 -781 0
-686 -786 0
-686 -791 0
-686 -796 0
-686 -801 0
-686 -806 0
-686 -811 0
-686 -816 0
-686 -821 0
-686 -826 0
-686 -831 0
-686 -836 0
-686 -841 0
-686 -846 0
-686 -851 0
-686 -856 0
-686 -861 0
-686 -866 0
-686 -871 0
-686 -876 0
-686 -881 0
-686 -886 0
-686 -891 0
-686 -896 0
-686 -901 0
-686 -906 0
-686 -911 0
-686 -916 0
-686 -921 0
-686 -926 0
-686 -931 0
-686 -936 0
-686 -941 0
-686 -946 0
-686 -951 0
-686 -956 0
-686 -961 0
-686 -966 0
-686 -971 0
-686 -976 0
-686 -981 0
-686 -986 0
-686 -991 0
-686 -996 0
-686 -1001 0
-686 -1006 0
-686 -1011 0
-686 -1016 0
-686 -1021 0
-686 -1026 0
-686 -1031 0
-686 -1036 0
-686 -1041 0
-686 -1046 0
-686 -1051 0
-686 -1056 0
-686 -1061 0
-686 -1066 0
-686 -1071 0
-691 -696 0
-691 -701 0
-691 -706 0
-691 -711 0
-691 -716 0
-691 -721 0
-691 -726 0
-691 -731 0
-691 -736 0
-691 -741 0
-691 -746 0
-691 -751 0
-691 -756 0
-691 -761 0
-691 -766 0
-691 -771 0
-691 -776 0
-691 -781 0
-691 -786 0
-691 -791 0
-691 -796 0
-691 -801 0
-691 -806 0
-691 -811 0
-691 -816 0
-691 -821 0
-691 -826 0
-691 -831 0
-691 -836 0
-691 -841 0
-691 -846 0
-691 -851 0
-691 -856 0
-691 -861 0
-691 -866 0
-691 -871 0
-691 -876 0
-691 -881 0
-691 -886 0
-691 -891 0
-691 -896 0
-691 -901 0
-691 -906 0
-691 -911 0
-691 -916 0
-691 -921 0
-691 -926 0
-691 -931 0
-691 -936 0
-691 -941 0
-691 -946 0
-691 -951 0
-691 -956 0
-691 -961 0
-691 -966 0
-691 -971 0
-691 -976 0
-691 -981 0
-691 -986 0
-691 -991 0
-691 -996 0
-691 -1001 0
-691 -1006 0
-691 -1011 0
-691 -1016 0
-691 -1021 0
-691 -1026 0
-691 -1031 0
-691 -1036 0
-691 -1041 0
-691 -1046 0
-691 -1051 0
-691 -1056 0
-691 -1061 0
-691 -1066 0
-691 -1071 0
-696 -701 0
-696 -706 0
-696 -711 0
-696 -716 0
-696 -721 0
-696 -726 0
-696 -731 0
-696 -736 0
-696 -741 0
-696 -746 0
-696 -751 0
-696 -756 0
-696 -761 0
-696 -766 0
-696 -771 0
-696 -776 0
-696 -781 0
-696 -786 0
-696 -791 0
-696 -796 0
-696 -801 0
-696 -806 0
-696 -811 0
-696 -816 0
-696 -821 0
-696 -826 0
-696 -831 0
-696 -836 0
-696 -841 0
-696 -846 0
-696 -851 0
-696 -856 0
-696 -861 0
-696 -866 0
-696 -871 0
-696 -876 0
-696 -881 0
-696 -886 0
-696 -891 0
-696 -896 0
-696 -901 0
-696 -906 0
-696 -911 0
-696 -916 0
-696 -921 0
-696 -926 0
-696 -931 0
-696 -936 0
-696 -941 0
-696 -946 0
-696 -951 0
-696 -956 0
-696 -961 0
-696 -966 0
-696 -971 0
-696 -976 0
-696 -981 0
-696 -986 0
-696 -991 0
-696 -996 0
-696 -1001 0
-696 -1006 0
-696 -1011 0
-696 -1016 0
-696 -1021 0
-696 -1026 0
-696 -1031 0
-696 -1036 0
-696 -1041 0
-696 -1046 0
-696 -1051 0
-696 -1056 0
-696 -1061 0
-696 -1066 0
-696 -1071 0
-701 -706 0
-701 -711 0
-701 -716 0
-701 -721 0
-701 -726 0
-701 -731 0
-701 -736 0
-701 -741 0
-701 -746 0
-701 -751 0
-701 -756 0
-701 -761 0
-701 -766 0
-701 -771 0
-701 -776 0
-701 -781 0
-701 -786 0
-701 -791 0
-701 -796 0
-701 -801 0
-701 -806 0
-701 -811 0
-701 -816 0
-701 -821 0
-701 -826 0
-701 -831 0
-701 -836 0
-701 -841 0
-701 -846 0
-701 -851 0
-701 -856 0
-701 -861 0
-701 -866 0
-701 -871 0
-701 -876 0
-701 -881 0
-701 -886 0
-701 -891 0
-701 -896 0
-701 -901 0
-701 -906 0
-701 -911 0
-701 -916 0
-701 -921 0
-701 -926 0
-701 -931 0
-701 -936 0
-701 -941 0
-701 -946 0
-701 -951 0
-701 -956 0
-701 -961 0
-701 -966 0
-701 -971 0
-701 -976 0
-701 -981 0
-701 -986 0
-701 -991 0
-701 -996 0
-701 -1001 0
-701 -1006 0
-701 -1011 0
-701 -1016 0
-701 -1021 0
-701 -1026 0
-701 -1031 0
-701 -1036 0
-701 -1041 0
-701 -1046 0
-701 -1051 0
-701 -1056 0
-701 -1061 0
-701 -1066 0
-701 -1071 0
-706 -711 0
-706 -716 0
-706 -721 0
-706 -726 0
-706 -731 0
-706 -736 0
-706 -741 0
-706 -746 0
-706 -751 0
-706 -756 0
-706 -761 0
-706 -766 0
-706 -771 0
-706 -776 0
-706 -781 0
-706 -786 0
-706 -791 0
-706 -796 0
-706 -801 0
-706 -806 0
-706 -811 0
-706 -816 0
-706 -821 0
-706 -826 0
-706 -831 0
-706 -836 0
-706 -841 0
-706 -846 0
-706 -851 0
-706 -856 0
-706 -861 0
-706 -866 0
-706 -871 0
-706 -876 0
-706 -881 0
-706 -886 0
-706 -891 0
-706 -896 0
-706 -901 0
-706 -906 0
-706 -911 0
-706 -916 0
-706 -921 0
-706 -926 0
-706 -931 0
-706 -936 0
-706 -941 0
-706 -946 0
-706 -951 0
-706 -956 0
-706 -961 0
-706 -966 0
-706 -971 0
-706 -976 0
-706 -981 0
-706 -986 0
-706 -991 0
-706 -996 0
-706 -1001 0
-706 -1006 0
-706 -1011 0
-706 -1016 0
-706 -1021 0
-706 -1026 0
-706 -1031 0
-706 -1036 0
-706 -1041 0
-706 -1046 0
-706 -1051 0
-706 -1056 0
-706 -1061 0
-706 -1066 0
-706 -1071 0
-711 -716 0
-711 -721 0
-711 -726 0
-711 -731 0
-711 -736 0
-711 -741 0
-711 -746 0
-711 -751 0
-711 -756 0
-711 -761 0
-711 -766 0
-711 -771 0
-711 -776 0
-711 -781 0
-711 -786 0
-711 -791 0
-711 -796 0
-711 -801 0
-711 -806 0
-711 -811 0
-711 -816 0
-711 -821 0
-711 -826 0
-711 -831 0
-711 -836 0
-711 -841 0
-711 -846 0
-711 -851 0
-711 -856 0
-711 -861 0
-711 -866 0
-711 -871 0
-711 -876 0
-711 -881 0
-711 -886 0
-711 -891 0
-711 -896 0
-711 -901 0
-711 -906 0
-711 -911 0
-711 -916 0
-711 -921 0
-711 -926 0
-711 -931 0
-711 -936 0
-711 -941 0
-711 -946 0
-711 -951 0
-711 -956 0
-711 -961 0
-711 -966 0
-711 -971 0
-711 -976 0
-711 -981 0
-711 -986 0
-711 -991 0
-711 -996 0
-711 -1001 0
-711 -1006 0
-711 -1011 0
-711 -1016 0
-711 -1021 0
-711 -1026 0
-711 -1031 0
-711 -1036 0
-711 -1041 0
-711 -1046 0
-711 -1051 0
-711 -1056 0
-711 -1061 0
-711 -1066 0
-711 -1071 0
-716 -721 0
-716 -726 0
-716 -731 0
-716 -736 0
-716 -741 0
-716 -746 0
-716 -751 0
-716 -756 0
-716 -761 0
-716 -766 0
-716 -771 0
-716 -776 0
-716 -781 0
-716 -786 0
-716 -791 0
-716 -796 0
-716 -801 0
-716 -806 0
-716 -811 0
-716 -816 0
-716 -821 0
-716 -826 0
-716 -831 0
-716 -836 0
-716 -841 0
-716 -846 0
-716 -851 0
-716 -856 0
-716 -861 0
-716 -866 0
-716 -871 0
-716 -876 0
-716 -881 0
-716 -886 0
-716 -891 0
-716 -896 0
-716 -901 0
-716 -906 0
-716 -911 0
-716 -916 0
-716 -921 0
-716 -926 0
-716 -931 0
-716 -936 0
-716 -941 0
-716 -946 0
-716 -951 0
-716 -956 0
-716 -961 0
-716 -966 0
-716 -971 0
-716 -976 0
-716 -981 0
-716 -986 0
-716 -991 0
-716 -996 0
-716 -1001 0
-716 -1006 0
-716 -1011 0
-716 -1016 0
-716 -1021 0
-716 -1026 0
-716 -1031 0
-716 -1036 0
-716 -1041 0
-716 -1046 0
-716 -1051 0
-716 -1056 0
-716 -1061 0
-716 -1066 0
-716 -1071 0
-721 -726 0
-721 -731 0
-721 -736 0
-721 -741 0
-721 -746 0
-721 -751 0
-721 -756 0
-721 -761 0
-721 -766 0
-721 -771 0
-721 -776 0
-721 -781 0
-721 -786 0
-721 -791 0
-721 -796 0
-721 -801 0
-721 -806 0
-721 -811 0
-721 -816 0
-721 -821 0
-721 -826 0
-721 -831 0
-721 -836 0
-721 -841 0
-721 -846 0
-721 -851 0
-721 -856 0
-721 -861 0
-721 -866 0
-721 -871 0
-721 -876 0
-721 -881 0
-721 -886 0
-721 -891 0
-721 -896 0
-721 -901 0
-721 -906 0
-721 -911 0
-721 -916 0
-721 -921 0
-721 -926 0
-721 -931 0
-721 -936 0
-721 -941 0
-721 -946 0
-721 -951 0
-721 -956 0
-721 -961 0
-721 -966 0
-721 -971 0
-721 -976 0
-721 -981 0
-721 -986 0
-721 -991 0
-721 -996 0
-721 -1001 0
-721 -1006 0
-721 -1011 0
-721 -1016 0
-721 -1021 0
-721 -1026 0
-721 -1031 0
-721 -1036 0
-721 -1041 0
-721 -1046 0
-721 -1051 0
-721 -1056 0
-721 -1061 0
-721 -1066 0
-721 -1071 0
-726 -731 0
-726 -736 0
-726 -741 0
-726 -746 0
-726 -751 0
-726 -756 0
-726 -761 0
-726 -766 0
-726 -771 0
-726 -776 0
-726 -781 0
-726 -786 0
-726 -791 0
-726 -796 0
-726 -801 0
-726 -806 0
-726 -811 0
-726 -816 0
-726 -821 0
-726 -826 0
-726 -831 0
-726 -836 0
-726 -841 0
-726 -846 0
-726 -851 0
-726 -856 0
-726 -861 0
-726 -866 0
-726 -871 0
-726 -876 0
-726 -881 0
-726 -886 0
-726 -891 0
-726 -896 0
-726 -901 0
-726 -906 0
-726 -911 0
-726 -916 0
-726 -921 0
-726 -926 0
-726 -931 0
-726 -936 0
-726 -941 0
-726 -946 0
-726 -951 0
-726 -956 0
-726 -961 0
-726 -966 0
-726 -971 0
-726 -976 0
-726 -981 0
-726 -986 0
-726 -991 0
-726 -996 0
-726 -1001 0
-726 -1006 0
-726 -1011 0
-726 -1016 0
-726 -1021 0
-726 -1026 0
-726 -1031 0
-726 -1036 0
-726 -1041 0
-726 -1046 0
-726 -1051 0
-726 -1056 0
-726 -1061 0
-726 -1066 0
-726 -1071 0
-731 -736 0
-731 -741 0
-731 -746 0
-731 -751 0
-731 -756 0
-731 -761 0
-731 -766 0
-731 -771 0
-731 -776 0
-731 -781 0
-731 -786 0
-731 -791 0
-731 -796 0
-731 -801 0
-731 -806 0
-731 -811 0
-731 -816 0
-731 -821 0
-731 -826 0
-731 -831 0
-731 -836 0
-731 -841 0
-731 -846 0
-731 -851 0
-731 -856 0
-731 -861 0
-731 -866 0
-731 -871 0
-731 -876 0
-731 -881 0
-731 -886 0
-731 -891 0
-731 -896 0
-731 -901 0
-731 -906 0
-731 -911 0
-731 -916 0
-731 -921 0
-731 -926 0
-731 -931 0
-731 -936 0
-731 -941 0
-731 -946 0
-731 -951 0
-731 -956 0
-731 -961 0
-731 -966 0
-731 -971 0
-731 -976 0
-731 -981 0
-731 -986 0
-731 -991 0
-731 -996 0
-731 -1001 0
-731 -1006 0
-731 -1011 0
-731 -1016 0
-731 -1021 0
-731 -1026 0
-731 -1031 0
-731 -1036 0
-731 -1041 0
-731 -1046 0
-731 -1051 0
-731 -1056 0
-731 -1061 0
-731 -1066 0
-731 -1071 0
-736 -741 0
-736 -746 0
-736 -751 0
-736 -756 0
-736 -761 0
-736 -766 0
-736 -771 0
-736 -776 0
-736 -781 0
-736 -786 0
-736 -791 0
-736 -796 0
-736 -801 0
-736 -806 0
-736 -811 0
-736 -816 0
-736 -821 0
-736 -826 0
-736 -831 0
-736 -836 0
-736 -841 0
-736 -846 0
-736 -851 0
-736 -856 0
-736 -861 0
-736 -866 0
-736 -871 0
-736 -876 0
-736 -881 0
-736 -886 0
-736 -891 0
-736 -896 0
-736 -901 0
-736 -906 0
-736 -911 0
-736 -916 0
-736 -921 0
-736 -926 0
-736 -931 0
-736 -936 0
-736 -941 0
-736 -946 0
-736 -951 0
-736 -956 0
-736 -961 0
-736 -966 0
-736 -971 0
-736 -976 0
-736 -981 0
-736 -986 0
-736 -991 0
-736 -996 0
-736 -1001 0
-736 -1006 0
-736 -1011 0
-736 -1016 0
-736 -1021 0
-736 -1026 0
-736 -1031 0
-736 -1036 0
-736 -1041 0
-736 -1046 0
-736 -1051 0
-736 -1056 0
-736 -1061 0
-736 -1066 0
-736 -1071 0
-741 -746 0
-741 -751 0
-741 -756 0
-741 -761 0
-741 -766 0
-741 -771 0
-741 -776 0
-741 -781 0
-741 -786 0
-741 -791 0
-741 -796 0
-741 -801 0
-741 -806 0
-741 -811 0
-741 -816 0
-741 -821 0
-741 -826 0
-741 -831 0
-741 -836 0
-741 -841 0
-741 -846 0
-741 -851 0
-741 -856 0
-741 -861 0
-741 -866 0
-741 -871 0
-741 -876 0
-741 -881 0
-741 -886 0
-741 -891 0
-741 -896 0
-741 -901 0
-741 -906 0
-741 -911 0
-741 -916 0
-741 -921 0
-741 -926 0
-741 -931 0
-741 -936 0
-741 -941 0
-741 -946 0
-741 -951 0
-741 -956 0
-741 -961 0
-741 -966 0
-741 -971 0
-741 -976 0
-741 -981 0
-741 -986 0
-741 -991 0
-741 -996 0
-741 -1001 0
-741 -1006 0
-741 -1011 0
-741 -1016 0
-741 -1021 0
-741 -1026 0
-741 -1031 0
-741 -1036 0
-741 -1041 0
-741 -1046 0
-741 -1051 0
-741 -1056 0
-741 -1061 0
-741 -1066 0
-741 -1071 0
-746 -751 0
-746 -756 0
-746 -761 0
-746 -766 0
-746 -771 0
-746 -776 0
-746 -781 0
-746 -786 0
-746 -791 0
-746 -796 0
-746 -801 0
-746 -806 0
-746 -811 0
-746 -816 0
-746 -821 0
-746 -826 0
-746 -831 0
-746 -836 0
-746 -841 0
-746 -846 0
-746 -851 0
-746 -856 0
-746 -861 0
-746 -866 0
-746 -871 0
-746 -876 0
-746 -881 0
-746 -886 0
-746 -891 0
-746 -896 0
-746 -901 0
-746 -906 0
-746 -911 0
-746 -916 0
-746 -921 0
-746 -926 0
-746 -931 0
-746 -936 0
-746 -941 0
-746 -946 0
-746 -951 0
-746 -956 0
-746 -961 0
-746 -966 0
-746 -971 0
-746 -976 0
-746 -981 0
-746 -986 0
-746 -991 0
-746 -996 0
-746 -1001 0
-746 -1006 0
-746 -1011 0
-746 -1016 0
-746 -1021 0
-746 -1026 0
-746 -1031 0
-746 -1036 0
-746 -1041 0
-746 -1046 0
-746 -1051 0
-746 -1056 0
-746 -1061 0
-746 -1066 0
-746 -1071 0
-751 -756 0
-751 -761 0
-751 -766 0
-751 -771 0
-751 -776 0
-751 -781 0
-751 -786 0
-751 -791 0
-751 -796 0
-751 -801 0
-751 -806 0
-751 -811 0
-751 -816 0
-751 -821 0
-751 -826 0
-751 -831 0
-751 -836 0
-751 -841 0
-751 -846 0
-751 -851 0
-751 -856 0
-751 -861 0
-751 -866 0
-751 -871 0
-751 -876 0
-751 -881 0
-751 -886 0
-751 -891 0
-751 -896 0
-751 -901 0
-751 -906 0
-751 -911 0
-751 -916 0
-751 -921 0
-751 -926 0
-751 -931 0
-751 -936 0
-751 -941 0
-751 -946 0
-751 -951 0
-751 -956 0
-751 -961 0
-751 -966 0
-751 -971 0
-751 -976 0
-751 -981 0
-751 -986 0
-751 -991 0
-751 -996 0
-751 -1001 0
-751 -1006 0
-751 -1011 0
-751 -1016 0
-751 -1021 0
-751 -1026 0
-751 -1031 0
-751 -1036 0
-751 -1041 0
-751 -1046 0
-751 -1051 0
-751 -1056 0
-751 -1061 0
-751 -1066 0
-751 -1071 0
-756 -761 0
-756 -766 0
-756 -771 0
-756 -776 0
-756 -781 0
-756 -786 0
-756 -791 0
-756 -796 0
-756 -801 0
-756 -806 0
-756 -811 0
-756 -816 0
-756 -821 0
-756 -826 0
-756 -831 0
-756 -836 0
-756 -841 0
-756 -846 0
-756 -851 0
-756 -856 0
-756 -861 0
-756 -866 0
-756 -871 0
-756 -876 0
-756 -881 0
-756 -886 0
-756 -891 0
-756 -896 0
-756 -901 0
-756 -906 0
-756 -911 0
-756 -916 0
-756 -921 0
-756 -926 0
-756 -931 0
-756 -936 0
-756 -941 0
-756 -946 0
-756 -951 0
-756 -956 0
-756 -961 0
-756 -966 0
-756 -971 0
-756 -976 0
-756 -981 0
-756 -986 0
-756 -991 0
-756 -996 0
-756 -1001 0
-756 -1006 0
-756 -1011 0
-756 -1016 0
-756 -1021 0
-756 -1026 0
-756 -1031 0
-756 -1036 0
-756 -1041 0
-756 -1046 0
-756 -1051 0
-756 -1056 0
-756 -1061 0
-756 -1066 0
-756 -1071 0
-761 -766 0
-761 -771 0
-761 -776 0
-761 -781 0
-761 -786 0
-761 -791 0
-761 -796 0
-761 -801 0
-761 -806 0
-761 -811 0
-761 -816 0
-761 -821 0
-761 -826 0
-761 -831 0
-761 -836 0
-761 -841 0
-761 -846 0
-761 -851 0
-761 -856 0
-761 -861 0
-761 -866 0
-761 -871 0
-761 -876 0
-761 -881 0
-761 -886 0
-761 -891 0
-761 -896 0
-761 -901 0
-761 -906 0
-761 -911 0
-761 -916 0
-761 -921 0
-761 -926 0
-761 -931 0
-761 -936 0
-761 -941 0
-761 -946 0
-761 -951 0
-761 -956 0
-761 -961 0
-761 -966 0
-761 -971 0
-761 -976 0
-761 -981 0
-761 -986 0
-761 -991 0
-761 -996 0
-761 -1001 0
-761 -1006 0
-761 -1011 0
-761 -1016 0
-761 -1021 0
-761 -1026 0
-761 -1031 0
-761 -1036 0
-761 -1041 0
-761 -1046 0
-761 -1051 0
-761 -1056 0
-761 -1061 0
-761 -1066 0
-761 -1071 0
-766 -771 0
-766 -776 0
-766 -781 0
-766 -786 0
-766 -791 0
-766 -796 0
-766 -801 0
-766 -806 0
-766 -811 0
-766 -816 0
-766 -821 0
-766 -826 0
-766 -831 0
-766 -836 0
-766 -841 0
-766 -846 0
-766 -851 0
-766 -856 0
-766 -861 0
-766 -866 0
-766 -871 0
-766 -876 0
-766 -881 0
-766 -886 0
-766 -891 0
-766 -896 0
-766 -901 0
-766 -906 0
-766 -911 0
-766 -916 0
-766 -921 0
-766 -926 0
-766 -931 0
-766 -936 0
-766 -941 0
-766 -946 0
-766 -951 0
-766 -956 0
-766 -961 0
-766 -966 0
-766 -971 0
-766 -976 0
-766 -981 0
-766 -986 0
-766 -991 0
-766 -996 0
-766 -1001 0
-766 -1006 0
-766 -1011 0
-766 -1016 0
-766 -1021 0
-766 -1026 0
-766 -1031 0
-766 -1036 0
-766 -1041 0
-766 -1046 0
-766 -1051 0
-766 -1056 0
-766 -1061 0
-766 -1066 0
-766 -1071 0
-771 -776 0
-771 -781 0
-771 -786 0
-771 -791 0
-771 -796 0
-771 -801 0
-771 -806 0
-771 -811 0
-771 -816 0
-771 -821 0
-771 -826 0
-771 -831 0
-771 -836 0
-771 -841 0
-771 -846 0
-771 -851 0
-771 -856 0
-771 -861 0
-771 -866 0
-771 -871 0
-771 -876 0
-771 -881 0
-771 -886 0
-771 -891 0
-771 -896 0
-771 -901 0
-771 -906 0
-771 -911 0
-771 -916 0
-771 -921 0
-771 -926 0
-771 -931 0
-771 -936 0
-771 -941 0
-771 -946 0
-771 -951 0
-771 -956 0
-771 -961 0
-771 -966 0
-771 -971 0
-771 -976 0
-771 -981 0
-771 -986 0
-771 -991 0
-771 -996 0
-771 -1001 0
-771 -1006 0
-771 -1011 0
-771 -1016 0
-771 -1021 0
-771 -1026 0
-771 -1031 0
-771 -1036 0
-771 -1041 0
-771 -1046 0
-771 -1051 0
-771 -1056 0
-771 -1061 0
-771 -1066 0
-771 -1071 0
-776 -781 0
-776 -786 0
-776 -791 0
-776 -796 0
-776 -801 0
-776 -806 0
-776 -811 0
-776 -816 0
-776 -821 0
-776 -826 0
-776 -831 0
-776 -836 0
-776 -841 0
-776 -846 0
-776 -851 0
-776 -856 0
-776 -861 0
-776 -866 0
-776 -871 0
-776 -876 0
-776 -881 0
-776 -886 0
-776 -891 0
-776 -896 0
-776 -901 0
-776 -906 0
-776 -911 0
-776 -916 0
-776 -921 0
-776 -926 0
-776 -931 0
-776 -936 0
-776 -941 0
-776 -946 0
-776 -951 0
-776 -956 0
-776 -961 0
-776 -966 0
-776 -971 0
-776 -976 0
-776 -981 0
-776 -986 0
-776 -991 0
-776 -996 0
-776 -1001 0
-776 -1006 0
-776 -1011 0
-776 -1016 0
-776 -1021 0
-776 -1026 0
-776 -1031 0
-776 -1036 0
-776 -1041 0
-776 -1046 0
-776 -1051 0
-776 -1056 0
-776 -1061 0
-776 -1066 0
-776 -1071 0
-781 -786 0
-781 -791 0
-781 -796 0
-781 -801 0
-781 -806 0
-781 -811 0
-781 -816 0
-781 -821 0
-781 -826 0
-781 -831 0
-781 -836 0
-781 -841 0
-781 -846 0
-781 -851 0
-781 -856 0
-781 -861 0
-781 -866 0
-781 -871 0
-781 -876 0
-781 -881 0
-781 -886 0
-781 -891 0
-781 -896 0
-781 -901 0
-781 -906 0
-781 -911 0
-781 -916 0
-781 -921 0
-781 -926 0
-781 -931 0
-781 -936 0
-781 -941 0
-781 -946 0
-781 -951 0
-781 -956 0
-781 -961 0
-781 -966 0
-781 -971 0
-781 -976 0
-781 -981 0
-781 -986 0
-781 -991 0
-781 -996 0
-781 -1001 0
-781 -1006 0
-781 -1011 0
-781 -1016 0
-781 -1021 0
-781 -1026 0
-781 -1031 0
-781 -1036 0
-781 -1041 0
-781 -1046 0
-781 -1051 0
-781 -1056 0
-781 -1061 0
-781 -1066 0
-781 -1071 0
-786 -791 0
-786 -796 0
-786 -801 0
-786 -806 0
-786 -811 0
-786 -816 0
-786 -821 0
-786 -826 0
-786 -831 0
-786 -836 0
-786 -841 0
-786 -846 0
-786 -851 0
-786 -856 0
-786 -861 0
-786 -866 0
-786 -871 0
-786 -876 0
-786 -881 0
-786 -886 0
-786 -891 0
-786 -896 0
-786 -901 0
-786 -906 0
-786 -911 0
-786 -916 0
-786 -921 0
-786 -926 0
-786 -931 0
-786 -936 0
-786 -941 0
-786 -946 0
-786 -951 0
-786 -956 0
-786 -961 0
-786 -966 0
-786 -971 0
-786 -976 0
-786 -981 0
-786 -986 0
-786 -991 0
-786 -996 0
-786 -1001 0
-786 -1006 0
-786 -1011 0
-786 -1016 0
-786 -1021 0
-786 -1026 0
-786 -1031 0
-786 -1036 0
-786 -1041 0
-786 -1046 0
-786 -1051 0
-786 -1056 0
-786 -1061 0
-786 -1066 0
-786 -1071 0
-791 -796 0
-791 -801 0
-791 -806 0
-791 -811 0
-791 -816 0
-791 -821 0
-791 -826 0
-791 -831 0
-791 -836 0
-791 -841 0
-791 -846 0
-791 -851 0
-791 -856 0
-791 -861 0
-791 -866 0
-791 -871 0
-791 -876 0
-791 -881 0
-791 -886 0
-791 -891 0
-791 -896 0
-791 -901 0
-791 -906 0
-791 -911 0
-791 -916 0
-791 -921 0
-791 -926 0
-791 -931 0
-791 -936 0
-791 -941 0
-791 -946 0
-791 -951 0
-791 -956 0
-791 -961 0
-791 -966 0
-791 -971 0
-791 -976 0
-791 -981 0
-791 -986 0
-791 -991 0
-791 -996 0
-791 -1001 0
-791 -1006 0
-791 -1011 0
-791 -1016 0
-791 -1021 0
-791 -1026 0
-791 -1031 0
-791 -1036 0
-791 -1041 0
-791 -1046 0
-791 -1051 0
-791 -1056 0
-791 -1061 0
-791 -1066 0
-791 -1071 0
-796 -801 0
-796 -806 0
-796 -811 0
-796 -816 0
-796 -821 0
-796 -826 0
-796 -831 0
-796 -836 0
-796 -841 0
-796 -846 0
-796 -851 0
-796 -856 0
-796 -861 0
-796 -866 0
-796 -871 0
-796 -876 0
-796 -881 0
-796 -886 0
-796 -891 0
-796 -896 0
-796 -901 0
-796 -906 0
-796 -911 0
-796 -916 0
-796 -921 0
-796 -926 0
-796 -931 0
-796 -936 0
-796 -941 0
-796 -946 0
-796 -951 0
-796 -956 0
-796 -961 0
-796 -966 0
-796 -971 0
-796 -976 0
-796 -981 0
-796 -986 0
-796 -991 0
-796 -996 0
-796 -1001 0
-796 -1006 0
-796 -1011 0
-796 -1016 0
-796 -1021 0
-796 -1026 0
-796 -1031 0
-796 -1036 0
-796 -1041 0
-796 -1046 0
-796 -1051 0
-796 -1056 0
-796 -1061 0
-796 -1066 0
-796 -1071 0
-801 -806 0
-801 -811 0
-801 -816 0
-801 -821 0
-801 -826 0
-801 -831 0
-801 -836 0
-801 -841 0
-801 -846 0
-801 -851 0
-801 -856 0
-801 -861 0
-801 -866 0
-801 -871 0
-801 -876 0
-801 -881 0
-801 -886 0
-801 -891 0
-801 -896 0
-801 -901 0
-801 -906 0
-801 -911 0
-801 -916 0
-801 -921 0
-801 -926 0
-801 -931 0
-801 -936 0
-801 -941 0
-801 -946 0
-801 -951 0
-801 -956 0
-801 -961 0
-801 -966 0
-801 -971 0
-801 -976 0
-801 -981 0
-801 -986 0
-801 -991 0
-801 -996 0
-801 -1001 0
-801 -1006 0
-801 -1011 0
-801 -1016 0
-801 -1021 0
-801 -1026 0
-801 -1031 0
-801 -1036 0
-801 -1041 0
-801 -1046 0
-801 -1051 0
-801 -1056 0
-801 -1061 0
-801 -1066 0
-801 -1071 0
-806 -811 0
-806 -816 0
-806 -821 0
-806 -826 0
-806 -831 0
-806 -836 0
-806 -841 0
-806 -846 0
-806 -851 0
-806 -856 0
-806 -861 0
-806 -866 0
-806 -871 0
-806 -876 0
-806 -881 0
-806 -886 0
-806 -891 0
-806 -896 0
-806 -901 0
-806 -906 0
-806 -911 0
-806 -916 0
-806 -921 0
-806 -926 0
-806 -931 0
-806 -936 0
-806 -941 0
-806 -946 0
-806 -951 0
-806 -956 0
-806 -961 0
-806 -966 0
-806 -971 0
-806 -976 0
-806 -981 0
-806 -986 0
-806 -991 0
-806 -996 0
-806 -1001 0
-806 -1006 0
-806 -1011 0
-806 -1016 0
-806 -1021 0
-806 -1026 0
-806 -1031 0
-806 -1036 0
-806 -1041 0
-806 -1046 0
-806 -1051 0
-806 -1056 0
-806 -1061 0
-806 -1066 0
-806 -1071 0
-811 -816 0
-811 -821 0
-811 -826 0
-811 -831 0
-811 -836 0
-811 -841 0
-811 -846 0
-811 -851 0
-811 -856 0
-811 -861 0
-811 -866 0
-811 -871 0
-811 -876 0
-811 -881 0
-811 -886 0
-811 -891 0
-811 -896 0
-811 -901 0
-811 -906 0
-811 -911 0
-811 -916 0
-811 -921 0
-811 -926 0
-811 -931 0
-811 -936 0
-811 -941 0
-811 -946 0
-811 -951 0
-811 -956 0
-811 -961 0
-811 -966 0
-811 -971 0
-811 -976 0
-811 -981 0
-811 -986 0
-811 -991 0
-811 -996 0
-811 -1001 0
-811 -1006 0
-811 -1011 0
-811 -1016 0
-811 -1021 0
-811 -1026 0
-811 -1031 0
-811 -1036 0
-811 -1041 0
-811 -1046 0
-811 -1051 0
-811 -1056 0
-811 -1061 0
-811 -1066 0
-811 -1071 0
-816 -821 0
-816 -826 0
-816 -831 0
-816 -836 0
-816 -841 0
-816 -846 0
-816 -851 0
-816 -856 0
-816 -861 0
-816 -866 0
-816 -871 0
-816 -876 0
-816 -881 0
-816 -886 0
-816 -891 0
-816 -896 0
-816 -901 0
-816 -906 0
-816 -911 0
-816 -916 0
-816 -921 0
-816 -926 0
-816 -931 0
-816 -936 0
-816 -941 0
-816 -946 0
-816 -951 0
-816 -956 0
-816 -961 0
-816 -966 0
-816 -971 0
-816 -976 0
-816 -981 0
-816 -986 0
-816 -991 0
-816 -996 0
-816 -1001 0
-816 -1006 0
-816 -1011 0
-816 -1016 0
-816 -1021 0
-816 -1026 0
-816 -1031 0
-816 -1036 0
-816 -1041 0
-816 -1046 0
-816 -1051 0
-816 -1056 0
-816 -1061 0
-816 -1066 0
-816 -1071 0
-821 -826 0
-821 -831 0
-821 -836 0
-821 -841 0
-821 -846 0
-821 -851 0
-821 -856 0
-821 -861 0
-821 -866 0
-821 -871 0
-821 -876 0
-821 -881 0
-821 -886 0
-821 -891 0
-821 -896 0
-821 -901 0
-821 -906 0
-821 -911 0
-821 -916 0
-821 -921 0
-821 -926 0
-821 -931 0
-821 -936 0
-821 -941 0
-821 -946 0
-821 -951 0
-821 -956 0
-821 -961 0
-821 -966 0
-821 -971 0
-821 -976 0
-821 -981 0
-821 -986 0
-821 -991 0
-821 -996 0
-821 -1001 0
-821 -1006 0
-821 -1011 0
-821 -1016 0
-821 -1021 0
-821 -1026 0
-821 -1031 0
-821 -1036 0
-821 -1041 0
-821 -1046 0
-821 -1051 0
-821 -1056 0
-821 -1061 0
-821 -1066 0
-821 -1071 0
-826 -831 0
-826 -836 0
-826 -841 0
-826 -846 0
-826 -851 0
-826 -856 0
-826 -861 0
-826 -866 0
-826 -871 0
-826 -876 0
-826 -881 0
-826 -886 0
-826 -891 0
-826 -896 0
-826 -901 0
-826 -906 0
-826 -911 0
-826 -916 0
-826 -921 0
-826 -926 0
-826 -931 0
-826 -936 0
-826 -941 0
-826 -946 0
-826 -951 0
-826 -956 0
-826 -961 0
-826 -966 0
-826 -971 0
-826 -976 0
-826 -981 0
-826 -986 0
-826 -991 0
-826 -996 0
-826 -1001 0
-826 -1006 0
-826 -1011 0
-826 -1016 0
-826 -1021 0
-826 -1026 0
-826 -1031 0
-826 -1036 0
-826 -1041 0
-826 -1046 0
-826 -1051 0
-826 -1056 0
-826 -1061 0
-826 -1066 0
-826 -1071 0
-831 -836 0
-831 -841 0
-831 -846 0
-831 -851 0
-831 -856 0
-831 -861 0
-831 -866 0
-831 -871 0
-831 -876 0
-831 -881 0
-831 -886 0
-831 -891 0
-831 -896 0
-831 -901 0
-831 -906 0
-831 -911 0
-831 -916 0
-831 -921 0
-831 -926 0
-831 -931 0
-831 -936 0
-831 -941 0
-831 -946 0
-831 -951 0
-831 -956 0
-831 -961 0
-831 -966 0
-831 -971 0
-831 -976 0
-831 -981 0
-831 -986 0
-831 -991 0
-831 -996 0
-831 -1001 0
-831 -1006 0
-831 -1011 0
-831 -1016 0
-831 -1021 0
-831 -1026 0
-831 -1031 0
-831 -1036 0
-831 -1041 0
-831 -1046 0
-831 -1051 0
-831 -1056 0
-831 -1061 0
-831 -1066 0
-831 -1071 0
-836 -841 0
-836 -846 0
-836 -851 0
-836 -856 0
-836 -861 0
-836 -866 0
-836 -871 0
-836 -876 0
-836 -881 0
-836 -886 0
-836 -891 0
-836 -896 0
-836 -901 0
-836 -906 0
-836 -911 0
-836 -916 0
-836 -921 0
-836 -926 0
-836 -931 0
-836 -936 0
-836 -941 0
-836 -946 0
-836 -951 0
-836 -956 0
-836 -961 0
-836 -966 0
-836 -971 0
-836 -976 0
-836 -981 0
-836 -986 0
-836 -991 0
-836 -996 0
-836 -1001 0
-836 -1006 0
-836 -1011 0
-836 -1016 0
-836 -1021 0
-836 -1026 0
-836 -1031 0
-836 -1036 0
-836 -1041 0
-836 -1046 0
-836 -1051 0
-836 -1056 0
-836 -1061 0
-836 -1066 0
-836 -1071 0
-841 -846 0
-841 -851 0
-841 -856 0
-841 -861 0
-841 -866 0
-841 -871 0
-841 -876 0
-841 -881 0
-841 -886 0
-841 -891 0
-841 -896 0
-841 -901 0
-841 -906 0
-841 -911 0
-841 -916 0
-841 -921 0
-841 -926 0
-841 -931 0
-841 -936 0
-841 -941 0
-841 -946 0
-841 -951 0
-841 -956 0
-841 -961 0
-841 -966 0
-841 -971 0
-841 -976 0
-841 -981 0
-841 -986 0
-841 -991 0
-841 -996 0
-841 -1001 0
-841 -1006 0
-841 -1011 0
-841 -1016 0
-841 -1021 0
-841 -1026 0
-841 -1031 0
-841 -1036 0
-841 -1041 0
-841 -1046 0
-841 -1051 0
-841 -1056 0
-841 -1061 0
-841 -1066 0
-841 -1071 0
-846 -851 0
-846 -856 0
-846 -861 0
-846 -866 0
-846 -871 0
-846 -876 0
-846 -881 0
-846 -886 0
-846 -891 0
-846 -896 0
-846 -901 0
-846 -906 0
-846 -911 0
-846 -916 0
-846 -921 0
-846 -926 0
-846 -931 0
-846 -936 0
-846 -941 0
-846 -946 0
-846 -951 0
-846 -956 0
-846 -961 0
-846 -966 0
-846 -971 0
-846 -976 0
-846 -981 0
-846 -986 0
-846 -991 0
-846 -996 0
-846 -1001 0
-846 -1006 0
-846 -1011 0
-846 -1016 0
-846 -1021 0
-846 -1026 0
-846 -1031 0
-846 -1036 0
-846 -1041 0
-846 -1046 0
-846 -1051 0
-846 -1056 0
-846 -1061 0
-846 -1066 0
-846 -1071 0
-851 -856 0
-851 -861 0
-851 -866 0
-851 -871 0
-851 -876 0
-851 -881 0
-851 -886 0
-851 -891 0
-851 -896 0
-851 -901 0
-851 -906 0
-851 -911 0
-851 -916 0
-851 -921 0
-851 -926 0
-851 -931 0
-851 -936 0
-851 -941 0
-851 -946 0
-851 -951 0
-851 -956 0
-851 -961 0
-851 -966 0
-851 -971 0
-851 -976 0
-851 -981 0
-851 -986 0
-851 -991 0
-851 -996 0
-851 -1001 0
-851 -1006 0
-851 -1011 0
-851 -1016 0
-851 -1021 0
-851 -1026 0
-851 -1031 0
-851 -1036 0
-851 -1041 0
-851 -1046 0
-851 -1051 0
-851 -1056 0
-851 -1061 0
-851 -1066 0
-851 -1071 0
-856 -861 0
-856 -866 0
-856 -871 0
-856 -876 0
-856 -881 0
-856 -886 0
-856 -891 0
-856 -896 0
-856 -901 0
-856 -906 0
-856 -911 0
-856 -916 0
-856 -921 0
-856 -926 0
-856 -931 0
-856 -936 0
-856 -941 0
-856 -946 0
-856 -951 0
-856 -956 0
-856 -961 0
-856 -966 0
-856 -971 0
-856 -976 0
-856 -981 0
-856 -986 0
-856 -991 0
-856 -996 0
-856 -1001 0
-856 -1006 0
-856 -1011 0
-856 -1016 0
-856 -1021 0
-856 -1026 0
-856 -1031 0
-856 -1036 0
-856 -1041 0
-856 -1046 0
-856 -1051 0
-856 -1056 0
-856 -1061 0
-856 -1066 0
-856 -1071 0
-861 -866 0
-861 -871 0
-861 -876 0
-861 -881 0
-861 -886 0
-861 -891 0
-861 -896 0
-861 -901 0
-861 -906 0
-861 -911 0
-861 -916 0
-861 -921 0
-861 -926 0
-861 -931 0
-861 -936 0
-861 -941 0
-861 -946 0
-861 -951 0
-861 -956 0
-861 -961 0
-861 -966 0
-861 -971 0
-861 -976 0
-861 -981 0
-861 -986 0
-861 -991 0
-861 -996 0
-861 -1001 0
-861 -1006 0
-861 -1011 0
-861 -1016 0
-861 -1021 0
-861 -1026 0
-861 -1031 0
-861 -1036 0
-861 -1041 0
-861 -1046 0
-861 -1051 0
-861 -1056 0
-861 -1061 0
-861 -1066 0
-861 -1071 0
-866 -871 0
-866 -876 0
-866 -881 0
-866 -886 0
-866 -891 0
-866 -896 0
-866 -901 0
-866 -906 0
-866 -911 0
-866 -916 0
-866 -921 0
-866 -926 0
-866 -931 0
-866 -936 0
-866 -941 0
-866 -946 0
-866 -951 0
-866 -956 0
-866 -961 0
-866 -966 0
-866 -971 0
-866 -976 0
-866 -981 0
-866 -986 0
-866 -991 0
-866 -996 0
-866 -1001 0
-866 -1006 0
-866 -1011 0
-866 -1016 0
-866 -1021 0
-866 -1026 0
-866 -1031 0
-866 -1036 0
-866 -1041 0
-866 -1046 0
-866 -1051 0
-866 -1056 0
-866 -1061 0
-866 -1066 0
-866 -1071 0
-871 -876 0
-871 -881 0
-871 -886 0
-871 -891 0
-871 -896 0
-871 -901 0
-871 -906 0
-871 -911 0
-871 -916 0
-871 -921 0
-871 -926 0
-871 -931 0
-871 -936 0
-871 -941 0
-871 -946 0
-871 -951 0
-871 -956 0
-871 -961 0
-871 -966 0
-871 -971 0
-871 -976 0
-871 -981 0
-871 -986 0
-871 -991 0
-871 -996 0
-871 -1001 0
-871 -1006 0
-871 -1011 0
-871 -1016 0
-871 -1021 0
-871 -1026 0
-871 -1031 0
-871 -1036 0
-871 -1041 0
-871 -1046 0
-871 -1051 0
-871 -1056 0
-871 -1061 0
-871 -1066 0
-871 -1071 0
-876 -881 0
-876 -886 0
-876 -891 0
-876 -896 0
-876 -901 0
-876 -906 0
-876 -911 0
-876 -916 0
-876 -921 0
-876 -926 0
-876 -931 0
-876 -936 0
-876 -941 0
-876 -946 0
-876 -951 0
-876 -956 0
-876 -961 0
-876 -966 0
-876 -971 0
-876 -976 0
-876 -981 0
-876 -986 0
-876 -991 0
-876 -996 0
-876 -1001 0
-876 -1006 0
-876 -1011 0
-876 -1016 0
-876 -1021 0
-876 -1026 0
-876 -1031 0
-876 -1036 0
-876 -1041 0
-876 -1046 0
-876 -1051 0
-876 -1056 0
-876 -1061 0
-876 -1066 0
-876 -1071 0
-881 -886 0
-881 -891 0
-881 -896 0
-881 -901 0
-881 -906 0
-881 -911 0
-881 -916 0
-881 -921 0
-881 -926 0
-881 -931 0
-881 -936 0
-881 -941 0
-881 -946 0
-881 -951 0
-881 -956 0
-881 -961 0
-881 -966 0
-881 -971 0
-881 -976 0
-881 -981 0
-881 -986 0
-881 -991 0
-881 -996 0
-881 -1001 0
-881 -1006 0
-881 -1011 0
-881 -1016 0
-881 -1021 0
-881 -1026 0
-881 -1031 0
-881 -1036 0
-881 -1041 0
-881 -1046 0
-881 -1051 0
-881 -1056 0
-881 -1061 0
-881 -1066 0
-881 -1071 0
-886 -891 0
-886 -896 0
-886 -901 0
-886 -906 0
-886 -911 0
-886 -916 0
-886 -921 0
-886 -926 0
-886 -931 0
-886 -936 0
-886 -941 0
-886 -946 0
-886 -951 0
-886 -956 0
-886 -961 0
-886 -966 0
-886 -971 0
-886 -976 0
-886 -981 0
-886 -986 0
-886 -991 0
-886 -996 0
-886 -1001 0
-886 -1006 0
-886 -1011 0
-886 -1016 0
-886 -1021 0
-886 -1026 0
-886 -1031 0
-886 -1036 0
-886 -1041 0
-886 -1046 0
-886 -1051 0
-886 -1056 0
-886 -1061 0
-886 -1066 0
-886 -1071 0
-891 -896 0
-891 -901 0
-891 -906 0
-891 -911 0
-891 -916 0
-891 -921 0
-891 -926 0
-891 -931 0
-891 -936 0
-891 -941 0
-891 -946 0
-891 -951 0
-891 -956 0
-891 -961 0
-891 -966 0
-891 -971 0
-891 -976 0
-891 -981 0
-891 -986 0
-891 -991 0
-891 -996 0
-891 -1001 0
-891 -1006 0
-891 -1011 0
-891 -1016 0
-891 -1021 0
-891 -1026 0
-891 -1031 0
-891 -1036 0
-891 -1041 0
-891 -1046 0
-891 -1051 0
-891 -1056 0
-891 -1061 0
-891 -1066 0
-891 -1071 0
-896 -901 0
-896 -906 0
-896 -911 0
-896 -916 0
-896 -921 0
-896 -926 0
-896 -931 0
-896 -936 0
-896 -941 0
-896 -946 0
-896 -951 0
-896 -956 0
-896 -961 0
-896 -966 0
-896 -971 0
-896 -976 0
-896 -981 0
-896 -986 0
-896 -991 0
-896 -996 0
-896 -1001 0
-896 -1006 0
-896 -1011 0
-896 -1016 0
-896 -1021 0
-896 -1026 0
-896 -1031 0
-896 -1036 0
-896 -1041 0
-896 -1046 0
-896 -1051 0
-896 -1056 0
-896 -1061 0
-896 -1066 0
-896 -1071 0
-901 -906 0
-901 -911 0
-901 -916 0
-901 -921 0
-901 -926 0
-901 -931 0
-901 -936 0
-901 -941 0
-901 -946 0
-901 -951 0
-901 -956 0
-901 -961 0
-901 -966 0
-901 -971 0
-901 -976 0
-901 -981 0
-901 -986 0
-901 -991 0
-901 -996 0
-901 -1001 0
-901 -1006 0
-901 -1011 0
-901 -1016 0
-901 -1021 0
-901 -1026 0
-901 -1031 0
-901 -1036 0
-901 -1041 0
-901 -1046 0
-901 -1051 0
-901 -1056 0
-901 -1061 0
-901 -1066 0
-901 -1071 0
-906 -911 0
-906 -916 0
-906 -921 0
-906 -926 0
-906 -931 0
-906 -936 0
-906 -941 0
-906 -946 0
-906 -951 0
-906 -956 0
-906 -961 0
-906 -966 0
-906 -971 0
-906 -976 0
-906 -981 0
-906 -986 0
-906 -991 0
-906 -996 0
-906 -1001 0
-906 -1006 0
-906 -1011 0
-906 -1016 0
-906 -1021 0
-906 -1026 0
-906 -1031 0
-906 -1036 0
-906 -1041 0
-906 -1046 0
-906 -1051 0
-906 -1056 0
-906 -1061 0
-906 -1066 0
-906 -1071 0
-911 -916 0
-911 -921 0
-911 -926 0
-911 -931 0
-911 -936 0
-911 -941 0
-911 -946 0
-911 -951 0
-911 -956 0
-911 -961 0
-911 -966 0
-911 -971 0
-911 -976 0
-911 -981 0
-911 -986 0
-911 -991 0
-911 -996 0
-911 -1001 0
-911 -1006 0
-911 -1011 0
-911 -1016 0
-911 -1021 0
-911 -1026 0
-911 -1031 0
-911 -1036 0
-911 -1041 0
-911 -1046 0
-911 -1051 0
-911 -1056 0
-911 -1061 0
-911 -1066 0
-911 -1071 0
-916 -921 0
-916 -926 0
-916 -931 0
-916 -936 0
-916 -941 0
-916 -946 0
-916 -951 0
-916 -956 0
-916 -961 0
-916 -966 0
-916 -971 0
-916 -976 0
-916 -981 0
-916 -986 0
-916 -991 0
-916 -996 0
-916 -1001 0
-916 -1006 0
-916 -1011 0
-916 -1016 0
-916 -1021 0
-916 -1026 0
-916 -1031 0
-916 -1036 0
-916 -1041 0
-916 -1046 0
-916 -1051 0
-916 -1056 0
-916 -1061 0
-916 -1066 0
-916 -1071 0
-921 -926 0
-921 -931 0
-921 -936 0
-921 -941 0
-921 -946 0
-921 -951 0
-921 -956 0
-921 -961 0
-921 -966 0
-921 -971 0
-921 -976 0
-921 -981 0
-921 -986 0
-921 -991 0
-921 -996 0
-921 -1001 0
-921 -1006 0
-921 -1011 0
-921 -1016 0
-921 -1021 0
-921 -1026 0
-921 -1031 0
-921 -1036 0
-921 -1041 0
-921 -1046 0
-921 -1051 0
-921 -1056 0
-921 -1061 0
-921 -1066 0
-921 -1071 0
-926 -931 0
-926 -936 0
-926 -941 0
-926 -946 0
-926 -951 0
-926 -956 0
-926 -961 0
-926 -966 0
-926 -971 0
-926 -976 0
-926 -981 0
-926 -986 0
-926 -991 0
-926 -996 0
-926 -1001 0
-926 -1006 0
-926 -1011 0
-926 -1016 0
-926 -1021 0
-926 -1026 0
-926 -1031 0
-926 -1036 0
-926 -1041 0
-926 -1046 0
-926 -1051 0
-926 -1056 0
-926 -1061 0
-926 -1066 0
-926 -1071 0
-931 -936 0
-931 -941 0
-931 -946 0
-931 -951 0
-931 -956 0
-931 -961 0
-931 -966 0
-931 -971 0
-931 -976 0
-931 -981 0
-931 -986 0
-931 -991 0
-931 -996 0
-931 -1001 0
-931 -1006 0
-931 -1011 0
-931 -1016 0
-931 -1021 0
-931 -1026 0
-931 -1031 0
-931 -1036 0
-931 -1041 0
-931 -1046 0
-931 -1051 0
-931 -1056 0
-931 -1061 0
-931 -1066 0
-931 -1071 0
-936 -941 0
-936 -946 0
-936 -951 0
-936 -956 0
-936 -961 0
-936 -966 0
-936 -971 0
-936 -976 0
-936 -981 0
-936 -986 0
-936 -991 0
-936 -996 0
-936 -1001 0
-936 -1006 0
-936 -1011 0
-936 -1016 0
-936 -1021 0
-936 -1026 0
-936 -1031 0
-936 -1036 0
-936 -1041 0
-936 -1046 0
-936 -1051 0
-936 -1056 0
-936 -1061 0
-936 -1066 0
-936 -1071 0
-941 -946 0
-941 -951 0
-941 -956 0
-941 -961 0
-941 -966 0
-941 -971 0
-941 -976 0
-941 -981 0
-941 -986 0
-941 -991 0
-941 -996 0
-941 -1001 0
-941 -1006 0
-941 -1011 0
-941 -1016 0
-941 -1021 0
-941 -1026 0
-941 -1031 0
-941 -1036 0
-941 -1041 0
-941 -1046 0
-941 -1051 0
-941 -1056 0
-941 -1061 0
-941 -1066 0
-941 -1071 0
-946 -951 0
-946 -956 0
-946 -961 0
-946 -966 0
-946 -971 0
-946 -976 0
-946 -981 0
-946 -986 0
-946 -991 0
-946 -996 0
-946 -1001 0
-946 -1006 0
-946 -1011 0
-946 -1016 0
-946 -1021 0
-946 -1026 0
-946 -1031 0
-946 -1036 0
-946 -1041 0
-946 -1046 0
-946 -1051 0
-946 -1056 0
-946 -1061 0
-946 -1066 0
-946 -1071 0
-951 -956 0
-951 -961 0
-951 -966 0
-951 -971 0
-951 -976 0
-951 -981 0
-951 -986 0
-951 -991 0
-951 -996 0
-951 -1001 0
-951 -1006 0
-951 -1011 0
-951 -1016 0
-951 -1021 0
-951 -1026 0
-951 -1031 0
-951 -1036 0
-951 -1041 0
-951 -1046 0
-951 -1051 0
-951 -1056 0
-951 -1061 0
-951 -1066 0
-951 -1071 0
-956 -961 0
-956 -966 0
-956 -971 0
-956 -976 0
-956 -981 0
-956 -986 0
-956 -991 0
-956 -996 0
-956 -1001 0
-956 -1006 0
-956 -1011 0
-956 -1016 0
-956 -1021 0
-956 -1026 0
-956 -1031 0
-956 -1036 0
-956 -1041 0
-956 -1046 0
-956 -1051 0
-956 -1056 0
-956 -1061 0
-956 -1066 0
-956 -1071 0
-961 -966 0
-961 -971 0
-961 -976 0
-961 -981 0
-961 -986 0
-961 -991 0
-961 -996 0
-961 -1001 0
-961 -1006 0
-961 -1011 0
-961 -1016 0
-961 -1021 0
-961 -1026 0
-961 -1031 0
-961 -1036 0
-961 -1041 0
-961 -1046 0
-961 -1051 0
-961 -1056 0
-961 -1061 0
-961 -1066 0
-961 -1071 0
-966 -971 0
-966 -976 0
-966 -981 0
-966 -986 0
-966 -991 0
-966 -996 0
-966 -1001 0
-966 -1006 0
-966 -1011 0
-966 -1016 0
-966 -1021 0
-966 -1026 0
-966 -1031 0
-966 -1036 0
-966 -1041 0
-966 -1046 0
-966 -1051 0
-966 -1056 0
-966 -1061 0
-966 -1066 0
-966 -1071 0
-971 -976 0
-971 -981 0
-971 -986 0
-971 -991 0
-971 -996 0
-971 -1001 0
-971 -1006 0
-971 -1011 0
-971 -1016 0
-971 -1021 0
-971 -1026 0
-971 -1031 0
-971 -1036 0
-971 -1041 0
-971 -1046 0
-971 -1051 0
-971 -1056 0
-971 -1061 0
-971 -1066 0
-971 -1071 0
-976 -981 0
-976 -986 0
-976 -991 0
-976 -996 0
-976 -1001 0
-976 -1006 0
-976 -1011 0
-976 -1016 0
-976 -1021 0
-976 -1026 0
-976 -1031 0
-976 -1036 0
-976 -1041 0
-976 -1046 0
-976 -1051 0
-976 -1056 0
-976 -1061 0
-976 -1066 0
-976 -1071 0
-981 -986 0
-981 -991 0
-981 -996 0
-981 -1001 0
-981 -1006 0
-981 -1011 0
-981 -1016 0
-981 -1021 0
-981 -1026 0
-981 -1031 0
-981 -1036 0
-981 -1041 0
-981 -1046 0
-981 -1051 0
-981 -1056 0
-981 -1061 0
-981 -1066 0
-981 -1071 0
-986 -991 0
-986 -996 0
-986 -1001 0
-986 -1006 0
-986 -1011 0
-986 -1016 0
-986 -1021 0
-986 -1026 0
-986 -1031 0
-986 -1036 0
-986 -1041 0
-986 -1046 0
-986 -1051 0
-986 -1056 0
-986 -1061 0
-986 -1066 0
-986 -1071 0
-991 -996 0
-991 -1001 0
-991 -1006 0
-991 -1011 0
-991 -1016 0
-991 -1021 0
-991 -1026 0
-991 -1031 0
-991 -1036 0
-991 -1041 0
-991 -1046 0
-991 -1051 0
-991 -1056 0
-991 -1061 0
-991 -1066 0
-991 -1071 0
-996 -1001 0
-996 -1006 0
-996 -1011 0
-996 -1016 0
-996 -1021 0
-996 -1026 0
-996 -1031 0
-996 -1036 0
-996 -1041 0
-996 -1046 0
-996 -1051 0
-996 -1056 0
-996 -1061 0
-996 -1066 0
-996 -1071 0
-1001 -1006 0
-1001 -1011 0
-1001 -1016 0
-1001 -1021 0
-1001 -1026 0
-1001 -1031 0
-1001 -1036 0
-1001 -1041 0
-1001 -1046 0
-1001 -1051 0
-1001 -1056 0
-1001 -1061 0
-1001 -1066 0
-1001 -1071 0
-1006 -1011 0
-1006 -1016 0
-1006 -1021 0
-1006 -1026 0
-1006 -1031 0
-1006 -1036 0
-1006 -1041 0
-1006 -1046 0
-1006 -1051 0
-1006 -1056 0
-1006 -1061 0
-1006 -1066 0
-1006 -1071 0
-1011 -1016 0
-1011 -1021 0
-1011 -1026 0
-1011 -1031 0
-1011 -1036 0
-1011 -1041 0
-1011 -1046 0
-1011 -1051 0
-1011 -1056 0
-1011 -1061 0
-1011 -1066 0
-1011 -1071 0
-1016 -1021 0
-1016 -1026 0
-1016 -1031 0
-1016 -1036 0
-1016 -1041 0
-1016 -1046 0
-1016 -1051 0
-1016 -1056 0
-1016 -1061 0
-1016 -1066 0
-1016 -1071 0
-1021 -1026 0
-1021 -1031 0
-1021 -1036 0
-1021 -1041 0
-1021 -1046 0
-1021 -1051 0
-1021 -1056 0
-1021 -1061 0
-1021 -1066 0
-1021 -1071 0
-1026 -1031 0
-1026 -1036 0
-1026 -1041 0
-1026 -1046 0
-1026 -1051 0
-1026 -1056 0
-1026 -1061 0
-1026 -1066 0
-1026 -1071 0
-1031 -1036 0
-1031 -1041 0
-1031 -1046 0
-1031 -1051 0
-1031 -1056 0
-1031 -1061 0
-1031 -1066 0
-1031 -1071 0
-1036 -1041 0
-1036 -1046 0
-1036 -1051 0
-1036 -1056 0
-1036 -1061 0
-1036 -1066 0
-1036 -1071 0
-1041 -1046 0
-1041 -1051 0
-1041 -1056 0
-1041 -1061 0
-1041 -1066 0
-1041 -1071 0
-1046 -1051 0
-1046 -1056 0
-1046 -1061 0
-1046 -1066 0
-1046 -1071 0
-1051 -1056 0
-1051 -1061 0
-1051 -1066 0
-1051 -1071 0
-1056 -1061 0
-1056 -1066 0
-1056 -1071 0
-1061 -1066 0
-1061 -1071 0
-1066 -1071 0
-656 200 0
-656 -158 0
-656 -146 3 0
-656 -146 135 0
-656 -146 -44 0
-656 -146 -50 0
-656 -146 -56 0
-656 -146 -62 0
-656 -146 -68 0
-656 -146 -38 -152 0
-656 -146 -74 -170 0
-656 -146 -104 -188 0
-656 -146 332 440 548 0
-656 -152 3 0
-656 -152 141 0
-656 -152 -44 0
-656 -152 -50 0
-656 -152 -56 0
-656 -152 -62 0
-656 -152 -68 0
-656 -152 -38 -158 0
-656 -152 -74 -176 0
-656 -152 -104 -194 0
-656 -152 338 446 554 0
-656 -2 -146 -134 0
-656 -2 -152 -140 0
-661 200 0
-661 -158 0
-661 -146 9 0
-661 -146 135 0
-661 -146 -38 0
-661 -146 -50 0
-661 -146 -56 0
-661 -146 -62 0
-661 -146 -68 0
-661 -146 -44 -152 0
-661 -146 -74 -170 0
-661 -146 -80 -170 0
-661 -146 -104 -188 0
-661 -146 -110 -188 0
-661 -146 350 458 566 0
-661 -152 9 0
-661 -152 141 0
-661 -152 -38 0
-661 -152 -50 0
-661 -152 -56 0
-661 -152 -62 0
-661 -152 -68 0
-661 -152 -44 -158 0
-661 -152 -74 -176 0
-661 -152 -80 -176 0
-661 -152 -104 -194 0
-661 -152 -110 -194 0
-661 -152 356 464 572 0
-661 -8 -146 -134 0
-661 -8 -152 -140 0
-666 200 0
-666 -158 0
-666 -146 15 0
-666 -146 135 0
-666 -146 -38 0
-666 -146 -44 0
-666 -146 -56 0
-666 -146 -62 0
-666 -146 -68 0
-666 -146 -50 -152 0
-666 -146 -80 -170 0
-666 -146 -86 -170 0
-666 -146 -104 -188 0
-666 -146 -110 -188 0
-666 -146 -116 -188 0
-666 -146 368 476 584 0
-666 -152 15 0
-666 -152 141 0
-666 -152 -38 0
-666 -152 -44 0
-666 -152 -56 0
-666 -152 -62 0
-666 -152 -68 0
-666 -152 -50 -158 0
-666 -152 -80 -176 0
-666 -152 -86 -176 0
-666 -152 -104 -194 0
-666 -152 -110 -194 0
-666 -152 -116 -194 0
-666 -152 374 482 590 0
-666 -14 -146 -134 0
-666 -14 -152 -140 0
-671 200 0
-671 -158 0
-671 -146 21 0
-671 -146 135 0
-671 -146 -38 0
-671 -146 -44 0
-671 -146 -50 0
-671 -146 -62 0
-671 -146 -68 0
-671 -146 -56 -152 0
-671 -146 -86 -170 0
-671 -146 -92 -170 0
-671 -146 -110 -188 0
-671 -146 -116 -188 0
-671 -146 -122 -188 0
-671 -146 386 494 602 0
-671 -152 21 0
-671 -152 141 0
-671 -152 -38 0
-671 -152 -44 0
-671 -152 -50 0
-671 -152 -62 0
-671 -152 -68 0
-671 -152 -56 -158 0
-671 -152 -86 -176 0
-671 -152 -92 -176 0
-671 -152 -110 -194 0
-671 -152 -116 -194 0
-671 -152 -122 -194 0
-671 -152 392 500 608 0
-671 -20 -146 -134 0
-671 -20 -152 -140 0
-676 200 0
-676 -158 0
-676 -146 27 0
-676 -146 135 0
-676 -146 -38 0
-676 -146 -44 0
-676 -146 -50 0
-676 -146 -56 0
-676 -146 -68 0
-676 -146 -62 -152 0
-676 -146 -92 -170 0
-676 -146 -98 -170 0
-676 -146 -116 -188 0
-676 -146 -122 -188 0
-676 -146 404 512 620 0
-676 -152 27 0
-676 -152 141 0
-676 -152 -38 0
-676 -152 -44 0
-676 -152 -50 0
-676 -152 -56 0
-676 -152 -68 0
-676 -152 -62 -158 0
-676 -152 -92 -176 0
-676 -152 -98 -176 0
-676 -152 -116 -194 0
-676 -152 -122 -194 0
-676 -152 410 518 626 0
-676 -26 -146 -134 0
-676 -26 -152 -140 0
-681 200 0
-681 -158 0
-681 -146 33 0
-681 -146 135 0
-681 -146 -38 0
-681 -146 -44 0
-681 -146 -50 0
-681 -146 -56 0
-681 -146 -62 0
-681 -146 -68 -152 0
-681 -146 -98 -170 0
-681 -146 -122 -188 0
-681 -146 422 530 638 0
-681 -152 33 0
-681 -152 141 0
-681 -152 -38 0
-681 -152 -44 0
-681 -152 -50 0
-681 -152 -56 0
-681 -152 -62 0
-681 -152 -68 -158 0
-681 -152 -98 -176 0
-681 -152 -122 -194 0
-681 -152 428 536 644 0
-681 -32 -146 -134 0
-681 -32 -152 -140 0
-686 200 0
-686 -176 0
-686 -164 3 0
-686 -164 135 0
-686 -164 -80 0
-686 -164 -86 0
-686 -164 -92 0
-686 -164 -98 0
-686 -164 -38 -152 0
-686 -164 -74 -170 0
-686 -164 -104 -188 0
-686 -164 332 440 548 0
-686 -170 3 0
-686 -170 141 0
-686 -170 -80 0
-686 -170 -86 0
-686 -170 -92 0
-686 -170 -98 0
-686 -170 -38 -158 0
-686 -170 -74 -176 0
-686 -170 -104 -194 0
-686 -170 338 446 554 0
-686 -2 -164 -134 0
-686 -2 -170 -140 0
-691 200 0
-691 -176 0
-691 -164 9 0
-691 -164 135 0
-691 -164 -86 0
-691 -164 -92 0
-691 -164 -98 0
-691 -164 -44 -152 0
-691 -164 -74 -170 0
-691 -164 -80 -170 0
-691 -164 -104 -188 0
-691 -164 -110 -188 0
-691 -164 350 458 566 0
-691 -170 9 0
-691 -170 141 0
-691 -170 -86 0
-691 -170 -92 0
-691 -170 -98 0
-691 -170 -44 -158 0
-691 -170 -74 -176 0
-691 -170 -80 -176 0
-691 -170 -104 -194 0
-691 -170 -110 -194 0
-691 -170 356 464 572 0
-691 -8 -164 -134 0
-691 -8 -170 -140 0
-696 200 0
-696 -176 0
-696 -164 15 0
-696 -164 135 0
-696 -164 -74 0
-696 -164 -92 0
-696 -164 -98 0
-696 -164 -50 -152 0
-696 -164 -80 -170 0
-696 -164 -86 -170 0
-696 -164 -104 -188 0
-696 -164 -110 -188 0
-696 -164 -116 -188 0
-696 -164 368 476 584 0
-696 -170 15 0
-696 -170 141 0
-696 -170 -74 0
-696 -170 -92 0
-696 -170 -98 0
-696 -170 -50 -158 0
-696 -170 -80 -176 0
-696 -170 -86 -176 0
-696 -170 -104 -194 0
-696 -170 -110 -194 0
-696 -170 -116 -194 0
-696 -170 374 482 590 0
-696 -14 -164 -134 0
-696 -14 -170 -140 0
-701 200 0
-701 -176 0
-701 -164 21 0
-701 -164 135 0
-701 -164 -74 0
-701 -164 -80 0
-701 -164 -98 0
-701 -164 -56 -152 0
-701 -164 -86 -170 0
-701 -164 -92 -170 0
-701 -164 -110 -188 0
-701 -164 -116 -188 0
-701 -164 -122 -188 0
-701 -164 386 494 602 0
-701 -170 21 0
-701 -170 141 0
-701 -170 -74 0
-701 -170 -80 0
-701 -170 -98 0
-701 -170 -56 -158 0
-701 -170 -86 -176 0
-701 -170 -92 -176 0
-701 -170 -110 -194 0
-701 -170 -116 -194 0
-701 -170 -122 -194 0
-701 -170 392 500 608 0
-701 -20 -164 -134 0
-701 -20 -170 -140 0
-706 200 0
-706 -176 0
-706 -164 27 0
-706 -164 135 0
-706 -164 -74 0
-706 -164 -80 0
-706 -164 -86 0
-706 -164 -62 -152 0
-706 -164 -92 -170 0
-706 -164 -98 -170 0
-706 -164 -116 -188 0
-706 -164 -122 -188 0
-706 -164 404 512 620 0
-706 -170 27 0
-706 -170 141 0
-706 -170 -74 0
-706 -170 -80 0
-706 -170 -86 0
-706 -170 -62 -158 0
-706 -170 -92 -176 0
-706 -170 -98 -176 0
-706 -170 -116 -194 0
-706 -170 -122 -194 0
-706 -170 410 518 626 0
-706 -26 -164 -134 0
-706 -26 -170 -140 0
-711 200 0
-711 -176 0
-711 -164 33 0
-711 -164 135 0
-711 -164 -74 0
-711 -164 -80 0
-711 -164 -86 0
-711 -164 -92 0
-711 -164 -68 -152 0
-711 -164 -98 -170 0
-711 -164 -122 -188 0
-711 -164 422 530 638 0
-711 -170 33 0
-711 -170 141 0
-711 -170 -74 0
-711 -170 -80 0
-711 -170 -86 0
-711 -170 -92 0
-711 -170 -68 -158 0
-711 -170 -98 -176 0
-711 -170 -122 -194 0
-711 -170 428 536 644 0
-711 -32 -164 -134 0
-711 -32 -170 -140 0
-716 200 0
-716 -194 0
-716 -182 3 0
-716 -182 135 0
-716 -182 -110 0
-716 -182 -116 0
-716 -182 -122 0
-716 -182 -38 -152 0
-716 -182 -74 -170 0
-716 -182 -104 -188 0
-716 -182 332 440 548 0
-716 -188 3 0
-716 -188 141 0
-716 -188 -110 0
-716 -188 -116 0
-716 -188 -122 0
-716 -188 -38 -158 0
-716 -188 -74 -176 0
-716 -188 -104 -194 0
-716 -188 338 446 554 0
-716 -2 -182 -134 0
-716 -2 -188 -140 0
-721 200 0
-721 -194 0
-721 -182 9 0
-721 -182 135 0
-721 -182 -116 0
-721 -182 -122 0
-721 -182 -44 -152 0
-721 -182 -74 -170 0
-721 -182 -80 -170 0
-721 -182 -104 -188 0
-721 -182 -110 -188 0
-721 -182 350 458 566 0
-721 -188 9 0
-721 -188 141 0
-721 -188 -116 0
-721 -188 -122 0
-721 -188 -44 -158 0
-721 -188 -74 -176 0
-721 -188 -80 -176 0
-721 -188 -104 -194 0
-721 -188 -110 -194 0
-721 -188 356 464 572 0
-721 -8 -182 -134 0
-721 -8 -188 -140 0
-726 200 0
-726 -194 0
-726 -182 15 0
-726 -182 135 0
-726 -182 -122 0
-726 -182 -50 -152 0
-726 -182 -80 -170 0
-726 -182 -86 -170 0
-726 -182 -104 -188 0
-726 -182 -110 -188 0
-726 -182 -116 -188 0
-726 -182 368 476 584 0
-726 -188 15 0
-726 -188 141 0
-726 -188 -122 0
-726 -188 -50 -158 0
-726 -188 -80 -176 0
-726 -188 -86 -176 0
-726 -188 -104 -194 0
-726 -188 -110 -194 0
-726 -188 -116 -194 0
-726 -188 374 482 590 0
-726 -14 -182 -134 0
-726 -14 -188 -140 0
-731 200 0
-731 -194 0
-731 -182 21 0
-731 -182 135 0
-731 -182 -104 0
-731 -182 -56 -152 0
-731 -182 -86 -170 0
-731 -182 -92 -170 0
-731 -182 -110 -188 0
-731 -182 -116 -188 0
-731 -182 -122 -188 0
-731 -182 386 494 602 0
-731 -188 21 0
-731 -188 141 0
-731 -188 -104 0
-731 -188 -56 -158 0
-731 -188 -86 -176 0
-731 -188 -92 -176 0
-731 -188 -110 -194 0
-731 -188 -116 -194 0
-731 -188 -122 -194 0
-731 -188 392 500 608 0
-731 -20 -182 -134 0
-731 -20 -188 -140 0
-736 200 0
-736 -194 0
-736 -182 27 0
-736 -182 135 0
-736 -182 -104 0
-736 -182 -110 0
-736 -182 -62 -152 0
-736 -182 -92 -170 0
-736 -182 -98 -170 0
-736 -182 -116 -188 0
-736 -182 -122 -188 0
-736 -182 404 512 620 0
-736 -188 27 0
-736 -188 141 0
-736 -188 -104 0
-736 -188 -110 0
-736 -188 -62 -158 0
-736 -188 -92 -176 0
-736 -188 -98 -176 0
-736 -188 -116 -194 0
-736 -188 -122 -194 0
-736 -188 410 518 626 0
-736 -26 -182 -134 0
-736 -26 -188 -140 0
-741 200 0
-741 -194 0
-741 -182 33 0
-741 -182 135 0
-741 -182 -104 0
-741 -182 -110 0
-741 -182 -116 0
-741 -182 -68 -152 0
-741 -182 -98 -170 0
-741 -182 -122 -188 0
-741 -182 422 530 638 0
-741 -188 33 0
-741 -188 141 0
-741 -188 -104 0
-741 -188 -110 0
-741 -188 -116 0
-741 -188 -68 -158 0
-741 -188 -98 -176 0
-741 -188 -122 -194 0
-741 -188 428 536 644 0
-741 -32 -182 -134 0
-741 -32 -188 -140 0
-746 200 0
-746 3 0
-746 129 0
-746 -2 -128 0
-746 -38 -146 0
-746 -74 -164 0
-746 -104 -182 0
-751 200 0
-751 9 0
-751 129 0
-751 -8 -128 0
-751 -44 -146 0
-751 -74 -164 0
-751 -80 -164 0
-751 -104 -182 0
-751 -110 -182 0
-756 200 0
-756 15 0
-756 129 0
-756 -14 -128 0
-756 -50 -146 0
-756 -80 -164 0
-756 -86 -164 0
-756 -104 -182 0
-756 -110 -182 0
-756 -116 -182 0
-761 200 0
-761 21 0
-761 129 0
-761 -20 -128 0
-761 -56 -146 0
-761 -86 -164 0
-761 -92 -164 0
-761 -110 -182 0
-761 -116 -182 0
-761 -122 -182 0
-766 200 0
-766 27 0
-766 129 0
-766 -26 -128 0
-766 -62 -146 0
-766 -92 -164 0
-766 -98 -164 0
-766 -116 -182 0
-766 -122 -182 0
-771 200 0
-771 33 0
-771 129 0
-771 -32 -128 0
-771 -68 -146 0
-771 -98 -164 0
-771 -122 -182 0
-776 206 0
-776 -140 0
-776 -128 39 0
-776 -128 153 0
-776 -128 -8 0
-776 -128 -14 0
-776 -128 -20 0
-776 -128 -26 0
-776 -128 -32 0
-776 -128 -2 -134 0
-776 -128 -74 -170 0
-776 -128 -104 -188 0
-776 -128 224 440 548 0
-776 -134 39 0
-776 -134 159 0
-776 -134 -8 0
-776 -134 -14 0
-776 -134 -20 0
-776 -134 -26 0
-776 -134 -32 0
-776 -134 -2 -140 0
-776 -134 -74 -176 0
-776 -134 -104 -194 0
-776 -134 230 446 554 0
-776 -38 -128 -152 0
-776 -38 -134 -158 0
-781 206 0
-781 -140 0
-781 -128 45 0
-781 -128 153 0
-781 -128 -2 0
-781 -128 -14 0
-781 -128 -20 0
-781 -128 -26 0
-781 -128 -32 0
-781 -128 -8 -134 0
-781 -128 -74 -170 0
-781 -128 -80 -170 0
-781 -128 -104 -188 0
-781 -128 -110 -188 0
-781 -128 242 458 566 0
-781 -134 45 0
-781 -134 159 0
-781 -134 -2 0
-781 -134 -14 0
-781 -134 -20 0
-781 -134 -26 0
-781 -134 -32 0
-781 -134 -8 -140 0
-781 -134 -74 -176 0
-781 -134 -80 -176 0
-781 -134 -104 -194 0
-781 -134 -110 -194 0
-781 -134 248 464 572 0
-781 -44 -128 -152 0
-781 -44 -134 -158 0
-786 206 0
-786 -140 0
-786 -128 51 0
-786 -128 153 0
-786 -128 -2 0
-786 -128 -8 0
-786 -128 -20 0
-786 -128 -26 0
-786 -128 -32 0
-786 -128 -14 -134 0
-786 -128 -80 -170 0
-786 -128 -86 -170 0
-786 -128 -104 -188 0
-786 -128 -110 -188 0
-786 -128 -116 -188 0
-786 -128 260 476 584 0
-786 -134 51 0
-786 -134 159 0
-786 -134 -2 0
-786 -134 -8 0
-786 -134 -20 0
-786 -134 -26 0
-786 -134 -32 0
-786 -134 -14 -140 0
-786 -134 -80 -176 0
-786 -134 -86 -176 0
-786 -134 -104 -194 0
-786 -134 -110 -194 0
-786 -134 -116 -194 0
-786 -134 266 482 590 0
-786 -50 -128 -152 0
-786 -50 -134 -158 0
-791 206 0
-791 -140 0
-791 -128 57 0
-791 -128 153 0
-791 -128 -2 0
-791 -128 -8 0
-791 -128 -14 0
-791 -128 -26 0
-791 -128 -32 0
-791 -128 -20 -134 0
-791 -128 -86 -170 0
-791 -128 -92 -170 0
-791 -128 -110 -188 0
-791 -128 -116 -188 0
-791 -128 -122 -188 0
-791 -128 278 494 602 0
-791 -134 57 0
-791 -134 159 0
-791 -134 -2 0
-791 -134 -8 0
-791 -134 -14 0
-791 -134 -26 0
-791 -134 -32 0
-791 -134 -20 -140 0
-791 -134 -86 -176 0
-791 -134 -92 -176 0
-791 -134 -110 -194 0
-791 -134 -116 -194 0
-791 -134 -122 -194 0
-791 -134 284 500 608 0
-791 -56 -128 -152 0
-791 -56 -134 -158 0
-796 206 0
-796 -140 0
-796 -128 63 0
-796 -128 153 0
-796 -128 -2 0
-796 -128 -8 0
-796 -128 -14 0
-796 -128 -20 0
-796 -128 -32 0
-796 -128 -26 -134 0
-796 -128 -92 -170 0
-796 -128 -98 -170 0
-796 -128 -116 -188 0
-796 -128 -122 -188 0
-796 -128 296 512 620 0
-796 -134 63 0
-796 -134 159 0
-796 -134 -2 0
-796 -134 -8 0
-796 -134 -14 0
-796 -134 -20 0
-796 -134 -32 0
-796 -134 -26 -140 0
-796 -134 -92 -176 0
-796 -134 -98 -176 0
-796 -134 -116 -194 0
-796 -134 -122 -194 0
-796 -134 302 518 626 0
-796 -62 -128 -152 0
-796 -62 -134 -158 0
-801 206 0
-801 -140 0
-801 -128 69 0
-801 -128 153 0
-801 -128 -2 0
-801 -128 -8 0
-801 -128 -14 0
-801 -128 -20 0
-801 -128 -26 0
-801 -128 -32 -134 0
-801 -128 -98 -170 0
-801 -128 -122 -188 0
-801 -128 314 530 638 0
-801 -134 69 0
-801 -134 159 0
-801 -134 -2 0
-801 -134 -8 0
-801 -134 -14 0
-801 -134 -20 0
-801 -134 -26 0
-801 -134 -32 -140 0
-801 -134 -98 -176 0
-801 -134 -122 -194 0
-801 -134 320 536 644 0
-801 -68 -128 -152 0
-801 -68 -134 -158 0
-806 206 0
-806 -176 0
-806 -164 39 0
-806 -164 153 0
-806 -164 -80 0
-806 -164 -86 0
-806 -164 -92 0
-806 -164 -98 0
-806 -164 -2 -134 0
-806 -164 -74 -170 0
-806 -164 -104 -188 0
-806 -164 224 440 548 0
-806 -170 39 0
-806 -170 159 0
-806 -170 -80 0
-806 -170 -86 0
-806 -170 -92 0
-806 -170 -98 0
-806 -170 -2 -140 0
-806 -170 -74 -176 0
-806 -170 -104 -194 0
-806 -170 230 446 554 0
-806 -38 -164 -152 0
-806 -38 -170 -158 0
-811 206 0
-811 -176 0
-811 -164 45 0
-811 -164 153 0
-811 -164 -86 0
-811 -164 -92 0
-811 -164 -98 0
-811 -164 -8 -134 0
-811 -164 -74 -170 0
-811 -164 -80 -170 0
-811 -164 -104 -188 0
-811 -164 -110 -188 0
-811 -164 242 458 566 0
-811 -170 45 0
-811 -170 159 0
-811 -170 -86 0
-811 -170 -92 0
-811 -170 -98 0
-811 -170 -8 -140 0
-811 -170 -74 -176 0
-811 -170 -80 -176 0
-811 -170 -104 -194 0
-811 -170 -110 -194 0
-811 -170 248 464 572 0
-811 -44 -164 -152 0
-811 -44 -170 -158 0
-816 206 0
-816 -176 0
-816 -164 51 0
-816 -164 153 0
-816 -164 -74 0
-816 -164 -92 0
-816 -164 -98 0
-816 -164 -14 -134 0
-816 -164 -80 -170 0
-816 -164 -86 -170 0
-816 -164 -104 -188 0
-816 -164 -110 -188 0
-816 -164 -116 -188 0
-816 -164 260 476 584 0
-816 -170 51 0
-816 -170 159 0
-816 -170 -74 0
-816 -170 -92 0
-816 -170 -98 0
-816 -170 -14 -140 0
-816 -170 -80 -176 0
-816 -170 -86 -176 0
-816 -170 -104 -194 0
-816 -170 -110 -194 0
-816 -170 -116 -194 0
-816 -170 266 482 590 0
-816 -50 -164 -152 0
-816 -50 -170 -158 0
-821 206 0
-821 -176 0
-821 -164 57 0
-821 -164 153 0
-821 -164 -74 0
-821 -164 -80 0
-821 -164 -98 0
-821 -164 -20 -134 0
-821 -164 -86 -170 0
-821 -164 -92 -170 0
-821 -164 -110 -188 0
-821 -164 -116 -188 0
-821 -164 -122 -188 0
-821 -164 278 494 602 0
-821 -170 57 0
-821 -170 159 0
-821 -170 -74 0
-821 -170 -80 0
-821 -170 -98 0
-821 -170 -20 -140 0
-821 -170 -86 -176 0
-821 -170 -92 -176 0
-821 -170 -110 -194 0
-821 -170 -116 -194 0
-821 -170 -122 -194 0
-821 -170 284 500 608 0
-821 -56 -164 -152 0
-821 -56 -170 -158 0
-826 206 0
-826 -176 0
-826 -164 63 0
-826 -164 153 0
-826 -164 -74 0
-826 -164 -80 0
-826 -164 -86 0
-826 -164 -26 -134 0
-826 -164 -92 -170 0
-826 -164 -98 -170 0
-826 -164 -116 -188 0
-826 -164 -122 -188 0
-826 -164 296 512 620 0
-826 -170 63 0
-826 -170 159 0
-826 -170 -74 0
-826 -170 -80 0
-826 -170 -86 0
-826 -170 -26 -140 0
-826 -170 -92 -176 0
-826 -170 -98 -176 0
-826 -170 -116 -194 0
-826 -170 -122 -194 0
-826 -170 302 518 626 0
-826 -62 -164 -152 0
-826 -62 -170 -158 0
-831 206 0
-831 -176 0
-831 -164 69 0
-831 -164 153 0
-831 -164 -74 0
-831 -164 -80 0
-831 -164 -86 0
-831 -164 -92 0
-831 -164 -32 -134 0
-831 -164 -98 -170 0
-831 -164 -122 -188 0
-831 -164 314 530 638 0
-831 -170 69 0
-831 -170 159 0
-831 -170 -74 0
-831 -170 -80 0
-831 -170 -86 0
-831 -170 -92 0
-831 -170 -32 -140 0
-831 -170 -98 -176 0
-831 -170 -122 -194 0
-831 -170 320 536 644 0
-831 -68 -164 -152 0
-831 -68 -170 -158 0
-836 206 0
-836 -194 0
-836 -182 39 0
-836 -182 153 0
-836 -182 -110 0
-836 -182 -116 0
-836 -182 -122 0
-836 -182 -2 -134 0
-836 -182 -74 -170 0
-836 -182 -104 -188 0
-836 -182 224 440 548 0
-836 -188 39 0
-836 -188 159 0
-836 -188 -110 0
-836 -188 -116 0
-836 -188 -122 0
-836 -188 -2 -140 0
-836 -188 -74 -176 0
-836 -188 -104 -194 0
-836 -188 230 446 554 0
-836 -38 -182 -152 0
-836 -38 -188 -158 0
-841 206 0
-841 -194 0
-841 -182 45 0
-841 -182 153 0
-841 -182 -116 0
-841 -182 -122 0
-841 -182 -8 -134 0
-841 -182 -74 -170 0
-841 -182 -80 -170 0
-841 -182 -104 -188 0
-841 -182 -110 -188 0
-841 -182 242 458 566 0
-841 -188 45 0
-841 -188 159 0
-841 -188 -116 0
-841 -188 -122 0
-841 -188 -8 -140 0
-841 -188 -74 -176 0
-841 -188 -80 -176 0
-841 -188 -104 -194 0
-841 -188 -110 -194 0
-841 -188 248 464 572 0
-841 -44 -182 -152 0
-841 -44 -188 -158 0
-846 206 0
-846 -194 0
-846 -182 51 0
-846 -182 153 0
-846 -182 -122 0
-846 -182 -14 -134 0
-846 -182 -80 -170 0
-846 -182 -86 -170 0
-846 -182 -104 -188 0
-846 -182 -110 -188 0
-846 -182 -116 -188 0
-846 -182 260 476 584 0
-846 -188 51 0
-846 -188 159 0
-846 -188 -122 0
-846 -188 -14 -140 0
-846 -188 -80 -176 0
-846 -188 -86 -176 0
-846 -188 -104 -194 0
-846 -188 -110 -194 0
-846 -188 -116 -194 0
-846 -188 266 482 590 0
-846 -50 -182 -152 0
-846 -50 -188 -158 0
-851 206 0
-851 -194 0
-851 -182 57 0
-851 -182 153 0
-851 -182 -104 0
-851 -182 -20 -134 0
-851 -182 -86 -170 0
-851 -182 -92 -170 0
-851 -182 -110 -188 0
-851 -182 -116 -188 0
-851 -182 -122 -188 0
-851 -182 278 494 602 0
-851 -188 57 0
-851 -188 159 0
-851 -188 -104 0
-851 -188 -20 -140 0
-851 -188 -86 -176 0
-851 -188 -92 -176 0
-851 -188 -110 -194 0
-851 -188 -116 -194 0
-851 -188 -122 -194 0
-851 -188 284 500 608 0
-851 -56 -182 -152 0
-851 -56 -188 -158 0
-856 206 0
-856 -194 0
-856 -182 63 0
-856 -182 153 0
-856 -182 -104 0
-856 -182 -110 0
-856 -182 -26 -134 0
-856 -182 -92 -170 0
-856 -182 -98 -170 0
-856 -182 -116 -188 0
-856 -182 -122 -188 0
-856 -182 296 512 620 0
-856 -188 63 0
-856 -188 159 0
-856 -188 -104 0
-856 -188 -110 0
-856 -188 -26 -140 0
-856 -188 -92 -176 0
-856 -188 -98 -176 0
-856 -188 -116 -194 0
-856 -188 -122 -194 0
-856 -188 302 518 626 0
-856 -62 -182 -152 0
-856 -62 -188 -158 0
-861 206 0
-861 -194 0
-861 -182 69 0
-861 -182 153 0
-861 -182 -104 0
-861 -182 -110 0
-861 -182 -116 0
-861 -182 -32 -134 0
-861 -182 -98 -170 0
-861 -182 -122 -188 0
-861 -182 314 530 638 0
-861 -188 69 0
-861 -188 159 0
-861 -188 -104 0
-861 -188 -110 0
-861 -188 -116 0
-861 -188 -32 -140 0
-861 -188 -98 -176 0
-861 -188 -122 -194 0
-861 -188 320 536 644 0
-861 -68 -182 -152 0
-861 -68 -188 -158 0
-866 206 0
-866 39 0
-866 147 0
-866 -38 -146 0
-866 -2 -128 0
-866 -74 -164 0
-866 -104 -182 0
-871 206 0
-871 45 0
-871 147 0
-871 -44 -146 0
-871 -8 -128 0
-871 -74 -164 0
-871 -80 -164 0
-871 -104 -182 0
-871 -110 -182 0
-876 206 0
-876 51 0
-876 147 0
-876 -50 -146 0
-876 -14 -128 0
-876 -80 -164 0
-876 -86 -164 0
-876 -104 -182 0
-876 -110 -182 0
-876 -116 -182 0
-881 206 0
-881 57 0
-881 147 0
-881 -56 -146 0
-881 -20 -128 0
-881 -86 -164 0
-881 -92 -164 0
-881 -110 -182 0
-881 -116 -182 0
-881 -122 -182 0
-886 206 0
-886 63 0
-886 147 0
-886 -62 -146 0
-886 -26 -128 0
-886 -92 -164 0
-886 -98 -164 0
-886 -116 -182 0
-886 -122 -182 0
-891 206 0
-891 69 0
-891 147 0
-891 -68 -146 0
-891 -32 -128 0
-891 -98 -164 0
-891 -122 -182 0
-896 212 0
-896 -140 0
-896 -128 75 0
-896 -128 171 0
-896 -128 -14 0
-896 -128 -20 0
-896 -128 -26 0
-896 -128 -32 0
-896 -128 -2 -134 0
-896 -128 -8 -134 0
-896 -128 -38 -152 0
-896 -128 -44 -152 0
-896 -128 -104 -188 0
-896 -128 -110 -188 0
-896 -128 224 332 548 242 350 566 0
-896 -134 75 0
-896 -134 177 0
-896 -134 -14 0
-896 -134 -20 0
-896 -134 -26 0
-896 -134 -32 0
-896 -134 -2 -140 0
-896 -134 -8 -140 0
-896 -134 -38 -158 0
-896 -134 -44 -158 0
-896 -134 -104 -194 0
-896 -134 -110 -194 0
-896 -134 230 338 554 248 356 572 0
-896 -74 -128 -170 0
-896 -74 -134 -176 0
-901 212 0
-901 -140 0
-901 -128 81 0
-901 -128 171 0
-901 -128 -2 0
-901 -128 -20 0
-901 -128 -26 0
-901 -128 -32 0
-901 -128 -8 -134 0
-901 -128 -14 -134 0
-901 -128 -44 -152 0
-901 -128 -50 -152 0
-901 -128 -104 -188 0
-901 -128 -110 -188 0
-901 -128 -116 -188 0
-901 -128 242 350 566 260 368 584 0
-901 -134 81 0
-901 -134 177 0
-901 -134 -2 0
-901 -134 -20 0
-901 -134 -26 0
-901 -134 -32 0
-901 -134 -8 -140 0
-901 -134 -14 -140 0
-901 -134 -44 -158 0
-901 -134 -50 -158 0
-901 -134 -104 -194 0
-901 -134 -110 -194 0
-901 -134 -116 -194 0
-901 -134 248 356 572 266 374 590 0
-901 -80 -128 -170 0
-901 -80 -134 -176 0
-906 212 0
-906 -140 0
-906 -128 87 0
-906 -128 171 0
-906 -128 -2 0
-906 -128 -8 0
-906 -128 -26 0
-906 -128 -32 0
-906 -128 -14 -134 0
-906 -128 -20 -134 0
-906 -128 -50 -152 0
-906 -128 -56 -152 0
-906 -128 -104 -188 0
-906 -128 -110 -188 0
-906 -128 -116 -188 0
-906 -128 -122 -188 0
-906 -128 260 368 584 278 386 602 0
-906 -134 87 0
-906 -134 177 0
-906 -134 -2 0
-906 -134 -8 0
-906 -134 -26 0
-906 -134 -32 0
-906 -134 -14 -140 0
-906 -134 -20 -140 0
-906 -134 -50 -158 0
-906 -134 -56 -158 0
-906 -134 -104 -194 0
-906 -134 -110 -194 0
-906 -134 -116 -194 0
-906 -134 -122 -194 0
-906 -134 266 374 590 284 392 608 0
-906 -86 -128 -170 0
-906 -86 -134 -176 0
-911 212 0
-911 -140 0
-911 -128 93 0
-911 -128 171 0
-911 -128 -2 0
-911 -128 -8 0
-911 -128 -14 0
-911 -128 -32 0
-911 -128 -20 -134 0
-911 -128 -26 -134 0
-911 -128 -56 -152 0
-911 -128 -62 -152 0
-911 -128 -110 -188 0
-911 -128 -116 -188 0
-911 -128 -122 -188 0
-911 -128 278 386 602 296 404 620 0
-911 -134 93 0
-911 -134 177 0
-911 -134 -2 0
-911 -134 -8 0
-911 -134 -14 0
-911 -134 -32 0
-911 -134 -20 -140 0
-911 -134 -26 -140 0
-911 -134 -56 -158 0
-911 -134 -62 -158 0
-911 -134 -110 -194 0
-911 -134 -116 -194 0
-911 -134 -122 -194 0
-911 -134 284 392 608 302 410 626 0
-911 -92 -128 -170 0
-911 -92 -134 -176 0
-916 212 0
-916 -140 0
-916 -128 99 0
-916 -128 171 0
-916 -128 -2 0
-916 -128 -8 0
-916 -128 -14 0
-916 -128 -20 0
-916 -128 -26 -134 0
-916 -128 -32 -134 0
-916 -128 -62 -152 0
-916 -128 -68 -152 0
-916 -128 -116 -188 0
-916 -128 -122 -188 0
-916 -128 296 404 620 314 422 638 0
-916 -134 99 0
-916 -134 177 0
-916 -134 -2 0
-916 -134 -8 0
-916 -134 -14 0
-916 -134 -20 0
-916 -134 -26 -140 0
-916 -134 -32 -140 0
-916 -134 -62 -158 0
-916 -134 -68 -158 0
-916 -134 -116 -194 0
-916 -134 -122 -194 0
-916 -134 302 410 626 320 428 644 0
-916 -98 -128 -170 0
-916 -98 -134 -176 0
-921 212 0
-921 -158 0
-921 -146 75 0
-921 -146 171 0
-921 -146 -50 0
-921 -146 -56 0
-921 -146 -62 0
-921 -146 -68 0
-921 -146 -2 -134 0
-921 -146 -8 -134 0
-921 -146 -38 -152 0
-921 -146 -44 -152 0
-921 -146 -104 -188 0
-921 -146 -110 -188 0
-921 -146 224 332 548 242 350 566 0
-921 -152 75 0
-921 -152 177 0
-921 -152 -50 0
-921 -152 -56 0
-921 -152 -62 0
-921 -152 -68 0
-921 -152 -2 -140 0
-921 -152 -8 -140 0
-921 -152 -38 -158 0
-921 -152 -44 -158 0
-921 -152 -104 -194 0
-921 -152 -110 -194 0
-921 -152 230 338 554 248 356 572 0
-921 -74 -146 -170 0
-921 -74 -152 -176 0
-926 212 0
-926 -158 0
-926 -146 81 0
-926 -146 171 0
-926 -146 -38 0
-926 -146 -56 0
-926 -146 -62 0
-926 -146 -68 0
-926 -146 -8 -134 0
-926 -146 -14 -134 0
-926 -146 -44 -152 0
-926 -146 -50 -152 0
-926 -146 -104 -188 0
-926 -146 -110 -188 0
-926 -146 -116 -188 0
-926 -146 242 350 566 260 368 584 0
-926 -152 81 0
-926 -152 177 0
-926 -152 -38 0
-926 -152 -56 0
-926 -152 -62 0
-926 -152 -68 0
-926 -152 -8 -140 0
-926 -152 -14 -140 0
-926 -152 -44 -158 0
-926 -152 -50 -158 0
-926 -152 -104 -194 0
-926 -152 -110 -194 0
-926 -152 -116 -194 0
-926 -152 248 356 572 266 374 590 0
-926 -80 -146 -170 0
-926 -80 -152 -176 0
-931 212 0
-931 -158 0
-931 -146 87 0
-931 -146 171 0
-931 -146 -38 0
-931 -146 -44 0
-931 -146 -62 0
-931 -146 -68 0
-931 -146 -14 -134 0
-931 -146 -20 -134 0
-931 -146 -50 -152 0
-931 -146 -56 -152 0
-931 -146 -104 -188 0
-931 -146 -110 -188 0
-931 -146 -116 -188 0
-931 -146 -122 -188 0
-931 -146 260 368 584 278 386 602 0
-931 -152 87 0
-931 -152 177 0
-931 -152 -38 0
-931 -152 -44 0
-931 -152 -62 0
-931 -152 -68 0
-931 -152 -14 -140 0
-931 -152 -20 -140 0
-931 -152 -50 -158 0
-931 -152 -56 -158 0
-931 -152 -104 -194 0
-931 -152 -110 -194 0
-931 -152 -116 -194 0
-931 -152 -122 -194 0
-931 -152 266 374 590 284 392 608 0
-931 -86 -146 -170 0
-931 -86 -152 -176 0
-936 212 0
-936 -158 0
-936 -146 93 0
-936 -146 171 0
-936 -146 -38 0
-936 -146 -44 0
-936 -146 -50 0
-936 -146 -68 0
-936 -146 -20 -134 0
-936 -146 -26 -134 0
-936 -146 -56 -152 0
-936 -146 -62 -152 0
-936 -146 -110 -188 0
-936 -146 -116 -188 0
-936 -146 -122 -188 0
-936 -146 278 386 602 296 404 620 0
-936 -152 93 0
-936 -152 177 0
-936 -152 -38 0
-936 -152 -44 0
-936 -152 -50 0
-936 -152 -68 0
-936 -152 -20 -140 0
-936 -152 -26 -140 0
-936 -152 -56 -158 0
-936 -152 -62 -158 0
-936 -152 -110 -194 0
-936 -152 -116 -194 0
-936 -152 -122 -194 0
-936 -152 284 392 608 302 410 626 0
-936 -92 -146 -170 0
-936 -92 -152 -176 0
-941 212 0
-941 -158 0
-941 -146 99 0
-941 -146 171 0
-941 -146 -38 0
-941 -146 -44 0
-941 -146 -50 0
-941 -146 -56 0
-941 -146 -26 -134 0
-941 -146 -32 -134 0
-941 -146 -62 -152 0
-941 -146 -68 -152 0
-941 -146 -116 -188 0
-941 -146 -122 -188 0
-941 -146 296 404 620 314 422 638 0
-941 -152 99 0
-941 -152 177 0
-941 -152 -38 0
-941 -152 -44 0
-941 -152 -50 0
-941 -152 -56 0
-941 -152 -26 -140 0
-941 -152 -32 -140 0
-941 -152 -62 -158 0
-941 -152 -68 -158 0
-941 -152 -116 -194 0
-941 -152 -122 -194 0
-941 -152 302 410 626 320 428 644 0
-941 -98 -146 -170 0
-941 -98 -152 -176 0
-946 212 0
-946 -194 0
-946 -182 75 0
-946 -182 171 0
-946 -182 -116 0
-946 -182 -122 0
-946 -182 -2 -134 0
-946 -182 -8 -134 0
-946 -182 -38 -152 0
-946 -182 -44 -152 0
-946 -182 -104 -188 0
-946 -182 -110 -188 0
-946 -182 224 332 548 242 350 566 0
-946 -188 75 0
-946 -188 177 0
-946 -188 -116 0
-946 -188 -122 0
-946 -188 -2 -140 0
-946 -188 -8 -140 0
-946 -188 -38 -158 0
-946 -188 -44 -158 0
-946 -188 -104 -194 0
-946 -188 -110 -194 0
-946 -188 230 338 554 248 356 572 0
-946 -74 -182 -170 0
-946 -74 -188 -176 0
-951 212 0
-951 -194 0
-951 -182 81 0
-951 -182 171 0
-951 -182 -122 0
-951 -182 -8 -134 0
-951 -182 -14 -134 0
-951 -182 -44 -152 0
-951 -182 -50 -152 0
-951 -182 -104 -188 0
-951 -182 -110 -188 0
-951 -182 -116 -188 0
-951 -182 242 350 566 260 368 584 0
-951 -188 81 0
-951 -188 177 0
-951 -188 -122 0
-951 -188 -8 -140 0
-951 -188 -14 -140 0
-951 -188 -44 -158 0
-951 -188 -50 -158 0
-951 -188 -104 -194 0
-951 -188 -110 -194 0
-951 -188 -116 -194 0
-951 -188 248 356 572 266 374 590 0
-951 -80 -182 -170 0
-951 -80 -188 -176 0
-956 212 0
-956 -194 0
-956 -182 87 0
-956 -182 171 0
-956 -182 -14 -134 0
-956 -182 -20 -134 0
-956 -182 -50 -152 0
-956 -182 -56 -152 0
-956 -182 -104 -188 0
-956 -182 -110 -188 0
-956 -182 -116 -188 0
-956 -182 -122 -188 0
-956 -182 260 368 584 278 386 602 0
-956 -188 87 0
-956 -188 177 0
-956 -188 -14 -140 0
-956 -188 -20 -140 0
-956 -188 -50 -158 0
-956 -188 -56 -158 0
-956 -188 -104 -194 0
-956 -188 -110 -194 0
-956 -188 -116 -194 0
-956 -188 -122 -194 0
-956 -188 266 374 590 284 392 608 0
-956 -86 -182 -170 0
-956 -86 -188 -176 0
-961 212 0
-961 -194 0
-961 -182 93 0
-961 -182 171 0
-961 -182 -104 0
-961 -182 -20 -134 0
-961 -182 -26 -134 0
-961 -182 -56 -152 0
-961 -182 -62 -152 0
-961 -182 -110 -188 0
-961 -182 -116 -188 0
-961 -182 -122 -188 0
-961 -182 278 386 602 296 404 620 0
-961 -188 93 0
-961 -188 177 0
-961 -188 -104 0
-961 -188 -20 -140 0
-961 -188 -26 -140 0
-961 -188 -56 -158 0
-961 -188 -62 -158 0
-961 -188 -110 -194 0
-961 -188 -116 -194 0
-961 -188 -122 -194 0
-961 -188 284 392 608 302 410 626 0
-961 -92 -182 -170 0
-961 -92 -188 -176 0
-966 212 0
-966 -194 0
-966 -182 99 0
-966 -182 171 0
-966 -182 -104 0
-966 -182 -110 0
-966 -182 -26 -134 0
-966 -182 -32 -134 0
-966 -182 -62 -152 0
-966 -182 -68 -152 0
-966 -182 -116 -188 0
-966 -182 -122 -188 0
-966 -182 296 404 620 314 422 638 0
-966 -188 99 0
-966 -188 177 0
-966 -188 -104 0
-966 -188 -110 0
-966 -188 -26 -140 0
-966 -188 -32 -140 0
-966 -188 -62 -158 0
-966 -188 -68 -158 0
-966 -188 -116 -194 0
-966 -188 -122 -194 0
-966 -188 302 410 626 320 428 644 0
-966 -98 -182 -170 0
-966 -98 -188 -176 0
-971 212 0
-971 75 0
-971 165 0
-971 -74 -164 0
-971 -2 -128 0
-971 -8 -128 0
-971 -38 -146 0
-971 -44 -146 0
-971 -104 -182 0
-971 -110 -182 0
-976 212 0
-976 81 0
-976 165 0
-976 -80 -164 0
-976 -8 -128 0
-976 -14 -128 0
-976 -44 -146 0
-976 -50 -146 0
-976 -104 -182 0
-976 -110 -182 0
-976 -116 -182 0
-981 212 0
-981 87 0
-981 165 0
-981 -86 -164 0
-981 -14 -128 0
-981 -20 -128 0
-981 -50 -146 0
-981 -56 -146 0
-981 -104 -182 0
-981 -110 -182 0
-981 -116 -182 0
-981 -122 -182 0
-986 212 0
-986 93 0
-986 165 0
-986 -92 -164 0
-986 -20 -128 0
-986 -26 -128 0
-986 -56 -146 0
-986 -62 -146 0
-986 -110 -182 0
-986 -116 -182 0
-986 -122 -182 0
-991 212 0
-991 99 0
-991 165 0
-991 -98 -164 0
-991 -26 -128 0
-991 -32 -128 0
-991 -62 -146 0
-991 -68 -146 0
-991 -116 -182 0
-991 -122 -182 0
-996 218 0
-996 -140 0
-996 -128 105 0
-996 -128 189 0
-996 -128 -20 0
-996 -128 -26 0
-996 -128 -32 0
-996 -128 -2 -134 0
-996 -128 -8 -134 0
-996 -128 -14 -134 0
-996 -128 -38 -152 0
-996 -128 -44 -152 0
-996 -128 -50 -152 0
-996 -128 -74 -170 0
-996 -128 -80 -170 0
-996 -128 -86 -170 0
-996 -128 224 332 440 242 350 458 0
-996 -128 224 332 440 260 368 476 0
-996 -128 242 350 458 260 368 476 0
-996 -134 105 0
-996 -134 195 0
-996 -134 -20 0
-996 -134 -26 0
-996 -134 -32 0
-996 -134 -2 -140 0
-996 -134 -8 -140 0
-996 -134 -14 -140 0
-996 -134 -38 -158 0
-996 -134 -44 -158 0
-996 -134 -50 -158 0
-996 -134 -74 -176 0
-996 -134 -80 -176 0
-996 -134 -86 -176 0
-996 -134 230 338 446 248 356 464 0
-996 -134 230 338 446 266 374 482 0
-996 -134 248 356 464 266 374 482 0
-996 -104 -128 -188 0
-996 -104 -134 -194 0
-1001 218 0
-1001 -140 0
-1001 -128 111 0
-1001 -128 189 0
-1001 -128 -2 0
-1001 -128 -26 0
-1001 -128 -32 0
-1001 -128 -8 -134 0
-1001 -128 -14 -134 0
-1001 -128 -20 -134 0
-1001 -128 -44 -152 0
-1001 -128 -50 -152 0
-1001 -128 -56 -152 0
-1001 -128 -74 -170 0
-1001 -128 -80 -170 0
-1001 -128 -86 -170 0
-1001 -128 -92 -170 0
-1001 -128 242 350 458 260 368 476 0
-1001 -128 242 350 458 278 386 494 0
-1001 -128 260 368 476 278 386 494 0
-1001 -134 111 0
-1001 -134 195 0
-1001 -134 -2 0
-1001 -134 -26 0
-1001 -134 -32 0
-1001 -134 -8 -140 0
-1001 -134 -14 -140 0
-1001 -134 -20 -140 0
-1001 -134 -44 -158 0
-1001 -134 -50 -158 0
-1001 -134 -56 -158 0
-1001 -134 -74 -176 0
-1001 -134 -80 -176 0
-1001 -134 -86 -176 0
-1001 -134 -92 -176 0
-1001 -134 248 356 464 266 374 482 0
-1001 -134 248 356 464 284 392 500 0
-1001 -134 266 374 482 284 392 500 0
-1001 -110 -128 -188 0
-1001 -110 -134 -194 0
-1006 218 0
-1006 -140 0
-1006 -128 117 0
-1006 -128 189 0
-1006 -128 -2 0
-1006 -128 -8 0
-1006 -128 -32 0
-1006 -128 -14 -134 0
-1006 -128 -20 -134 0
-1006 -128 -26 -134 0
-1006 -128 -50 -152 0
-1006 -128 -56 -152 0
-1006 -128 -62 -152 0
-1006 -128 -80 -170 0
-1006 -128 -86 -170 0
-1006 -128 -92 -170 0
-1006 -128 -98 -170 0
-1006 -128 260 368 476 278 386 494 0
-1006 -128 260 368 476 296 404 512 0
-1006 -128 278 386 494 296 404 512 0
-1006 -134 117 0
-1006 -134 195 0
-1006 -134 -2 0
-1006 -134 -8 0
-1006 -134 -32 0
-1006 -134 -14 -140 0
-1006 -134 -20 -140 0
-1006 -134 -26 -140 0
-1006 -134 -50 -158 0
-1006 -134 -56 -158 0
-1006 -134 -62 -158 0
-1006 -134 -80 -176 0
-1006 -134 -86 -176 0
-1006 -134 -92 -176 0
-1006 -134 -98 -176 0
-1006 -134 266 374 482 284 392 500 0
-1006 -134 266 374 482 302 410 518 0
-1006 -134 284 392 500 302 410 518 0
-1006 -116 -128 -188 0
-1006 -116 -134 -194 0
-1011 218 0
-1011 -140 0
-1011 -128 123 0
-1011 -128 189 0
-1011 -128 -2 0
-1011 -128 -8 0
-1011 -128 -14 0
-1011 -128 -20 -134 0
-1011 -128 -26 -134 0
-1011 -128 -32 -134 0
-1011 -128 -56 -152 0
-1011 -128 -62 -152 0
-1011 -128 -68 -152 0
-1011 -128 -86 -170 0
-1011 -128 -92 -170 0
-1011 -128 -98 -170 0
-1011 -128 278 386 494 296 404 512 0
-1011 -128 278 386 494 314 422 530 0
-1011 -128 296 404 512 314 422 530 0
-1011 -134 123 0
-1011 -134 195 0
-1011 -134 -2 0
-1011 -134 -8 0
-1011 -134 -14 0
-1011 -134 -20 -140 0
-1011 -134 -26 -140 0
-1011 -134 -32 -140 0
-1011 -134 -56 -158 0
-1011 -134 -62 -158 0
-1011 -134 -68 -158 0
-1011 -134 -86 -176 0
-1011 -134 -92 -176 0
-1011 -134 -98 -176 0
-1011 -134 284 392 500 302 410 518 0
-1011 -134 284 392 500 320 428 536 0
-1011 -134 302 410 518 320 428 536 0
-1011 -122 -128 -188 0
-1011 -122 -134 -194 0
-1016 218 0
-1016 -158 0
-1016 -146 105 0
-1016 -146 189 0
-1016 -146 -56 0
-1016 -146 -62 0
-1016 -146 -68 0
-1016 -146 -2 -134 0
-1016 -146 -8 -134 0
-1016 -146 -14 -134 0
-1016 -146 -38 -152 0
-1016 -146 -44 -152 0
-1016 -146 -50 -152 0
-1016 -146 -74 -170 0
-1016 -146 -80 -170 0
-1016 -146 -86 -170 0
-1016 -146 224 332 440 242 350 458 0
-1016 -146 224 332 440 260 368 476 0
-1016 -146 242 350 458 260 368 476 0
-1016 -152 105 0
-1016 -152 195 0
-1016 -152 -56 0
-1016 -152 -62 0
-1016 -152 -68 0
-1016 -152 -2 -140 0
-1016 -152 -8 -140 0
-1016 -152 -14 -140 0
-1016 -152 -38 -158 0
-1016 -152 -44 -158 0
-1016 -152 -50 -158 0
-1016 -152 -74 -176 0
-1016 -152 -80 -176 0
-1016 -152 -86 -176 0
-1016 -152 230 338 446 248 356 464 0
-1016 -152 230 338 446 266 374 482 0
-1016 -152 248 356 464 266 374 482 0
-1016 -104 -146 -188 0
-1016 -104 -152 -194 0
-1021 218 0
-1021 -158 0
-1021 -146 111 0
-1021 -146 189 0
-1021 -146 -38 0
-1021 -146 -62 0
-1021 -146 -68 0
-1021 -146 -8 -134 0
-1021 -146 -14 -134 0
-1021 -146 -20 -134 0
-1021 -146 -44 -152 0
-1021 -146 -50 -152 0
-1021 -146 -56 -152 0
-1021 -146 -74 -170 0
-1021 -146 -80 -170 0
-1021 -146 -86 -170 0
-1021 -146 -92 -170 0
-1021 -146 242 350 458 260 368 476 0
-1021 -146 242 350 458 278 386 494 0
-1021 -146 260 368 476 278 386 494 0
-1021 -152 111 0
-1021 -152 195 0
-1021 -152 -38 0
-1021 -152 -62 0
-1021 -152 -68 0
-1021 -152 -8 -140 0
-1021 -152 -14 -140 0
-1021 -152 -20 -140 0
-1021 -152 -44 -158 0
-1021 -152 -50 -158 0
-1021 -152 -56 -158 0
-1021 -152 -74 -176 0
-1021 -152 -80 -176 0
-1021 -152 -86 -176 0
-1021 -152 -92 -176 0
-1021 -152 248 356 464 266 374 482 0
-1021 -152 248 356 464 284 392 500 0
-1021 -152 266 374 482 284 392 500 0
-1021 -110 -146 -188 0
-1021 -110 -152 -194 0
-1026 218 0
-1026 -158 0
-1026 -146 117 0
-1026 -146 189 0
-1026 -146 -38 0
-1026 -146 -44 0
-1026 -146 -68 0
-1026 -146 -14 -134 0
-1026 -146 -20 -134 0
-1026 -146 -26 -134 0
-1026 -146 -50 -152 0
-1026 -146 -56 -152 0
-1026 -146 -62 -152 0
-1026 -146 -80 -170 0
-1026 -146 -86 -170 0
-1026 -146 -92 -170 0
-1026 -146 -98 -170 0
-1026 -146 260 368 476 278 386 494 0
-1026 -146 260 368 476 296 404 512 0
-1026 -146 278 386 494 296 404 512 0
-1026 -152 117 0
-1026 -152 195 0
-1026 -152 -38 0
-1026 -152 -44 0
-1026 -152 -68 0
-1026 -152 -14 -140 0
-1026 -152 -20 -140 0
-1026 -152 -26 -140 0
-1026 -152 -50 -158 0
-1026 -152 -56 -158 0
-1026 -152 -62 -158 0
-1026 -152 -80 -176 0
-1026 -152 -86 -176 0
-1026 -152 -92 -176 0
-1026 -152 -98 -176 0
-1026 -152 266 374 482 284 392 500 0
-1026 -152 266 374 482 302 410 518 0
-1026 -152 284 392 500 302 410 518 0
-1026 -116 -146 -188 0
-1026 -116 -152 -194 0
-1031 218 0
-1031 -158 0
-1031 -146 123 0
-1031 -146 189 0
-1031 -146 -38 0
-1031 -146 -44 0
-1031 -146 -50 0
-1031 -146 -20 -134 0
-1031 -146 -26 -134 0
-1031 -146 -32 -134 0
-1031 -146 -56 -152 0
-1031 -146 -62 -152 0
-1031 -146 -68 -152 0
-1031 -146 -86 -170 0
-1031 -146 -92 -170 0
-1031 -146 -98 -170 0
-1031 -146 278 386 494 296 404 512 0
-1031 -146 278 386 494 314 422 530 0
-1031 -146 296 404 512 314 422 530 0
-1031 -152 123 0
-1031 -152 195 0
-1031 -152 -38 0
-1031 -152 -44 0
-1031 -152 -50 0
-1031 -152 -20 -140 0
-1031 -152 -26 -140 0
-1031 -152 -32 -140 0
-1031 -152 -56 -158 0
-1031 -152 -62 -158 0
-1031 -152 -68 -158 0
-1031 -152 -86 -176 0
-1031 -152 -92 -176 0
-1031 -152 -98 -176 0
-1031 -152 284 392 500 302 410 518 0
-1031 -152 284 392 500 320 428 536 0
-1031 -152 302 410 518 320 428 536 0
-1031 -122 -146 -188 0
-1031 -122 -152 -194 0
-1036 218 0
-1036 -176 0
-1036 -164 105 0
-1036 -164 189 0
-1036 -164 -92 0
-1036 -164 -98 0
-1036 -164 -2 -134 0
-1036 -164 -8 -134 0
-1036 -164 -14 -134 0
-1036 -164 -38 -152 0
-1036 -164 -44 -152 0
-1036 -164 -50 -152 0
-1036 -164 -74 -170 0
-1036 -164 -80 -170 0
-1036 -164 -86 -170 0
-1036 -164 224 332 440 242 350 458 0
-1036 -164 224 332 440 260 368 476 0
-1036 -164 242 350 458 260 368 476 0
-1036 -170 105 0
-1036 -170 195 0
-1036 -170 -92 0
-1036 -170 -98 0
-1036 -170 -2 -140 0
-1036 -170 -8 -140 0
-1036 -170 -14 -140 0
-1036 -170 -38 -158 0
-1036 -170 -44 -158 0
-1036 -170 -50 -158 0
-1036 -170 -74 -176 0
-1036 -170 -80 -176 0
-1036 -170 -86 -176 0
-1036 -170 230 338 446 248 356 464 0
-1036 -170 230 338 446 266 374 482 0
-1036 -170 248 356 464 266 374 482 0
-1036 -104 -164 -188 0
-1036 -104 -170 -194 0
-1041 218 0
-1041 -176 0
-1041 -164 111 0
-1041 -164 189 0
-1041 -164 -98 0
-1041 -164 -8 -134 0
-1041 -164 -14 -134 0
-1041 -164 -20 -134 0
-1041 -164 -44 -152 0
-1041 -164 -50 -152 0
-1041 -164 -56 -152 0
-1041 -164 -74 -170 0
-1041 -164 -80 -170 0
-1041 -164 -86 -170 0
-1041 -164 -92 -170 0
-1041 -164 242 350 458 260 368 476 0
-1041 -164 242 350 458 278 386 494 0
-1041 -164 260 368 476 278 386 494 0
-1041 -170 111 0
-1041 -170 195 0
-1041 -170 -98 0
-1041 -170 -8 -140 0
-1041 -170 -14 -140 0
-1041 -170 -20 -140 0
-1041 -170 -44 -158 0
-1041 -170 -50 -158 0
-1041 -170 -56 -158 0
-1041 -170 -74 -176 0
-1041 -170 -80 -176 0
-1041 -170 -86 -176 0
-1041 -170 -92 -176 0
-1041 -170 248 356 464 266 374 482 0
-1041 -170 248 356 464 284 392 500 0
-1041 -170 266 374 482 284 392 500 0
-1041 -110 -164 -188 0
-1041 -110 -170 -194 0
-1046 218 0
-1046 -176 0
-1046 -164 117 0
-1046 -164 189 0
-1046 -164 -74 0
-1046 -164 -14 -134 0
-1046 -164 -20 -134 0
-1046 -164 -26 -134 0
-1046 -164 -50 -152 0
-1046 -164 -56 -152 0
-1046 -164 -62 -152 0
-1046 -164 -80 -170 0
-1046 -164 -86 -170 0
-1046 -164 -92 -170 0
-1046 -164 -98 -170 0
-1046 -164 260 368 476 278 386 494 0
-1046 -164 260 368 476 296 404 512 0
-1046 -164 278 386 494 296 404 512 0
-1046 -170 117 0
-1046 -170 195 0
-1046 -170 -74 0
-1046 -170 -14 -140 0
-1046 -170 -20 -140 0
-1046 -170 -26 -140 0
-1046 -170 -50 -158 0
-1046 -170 -56 -158 0
-1046 -170 -62 -158 0
-1046 -170 -80 -176 0
-1046 -170 -86 -176 0
-1046 -170 -92 -176 0
-1046 -170 -98 -176 0
-1046 -170 266 374 482 284 392 500 0
-1046 -170 266 374 482 302 410 518 0
-1046 -170 284 392 500 302 410 518 0
-1046 -116 -164 -188 0
-1046 -116 -170 -194 0
-1051 218 0
-1051 -176 0
-1051 -164 123 0
-1051 -164 189 0
-1051 -164 -74 0
-1051 -164 -80 0
-1051 -164 -20 -134 0
-1051 -164 -26 -134 0
-1051 -164 -32 -134 0
-1051 -164 -56 -152 0
-1051 -164 -62 -152 0
-1051 -164 -68 -152 0
-1051 -164 -86 -170 0
-1051 -164 -92 -170 0
-1051 -164 -98 -170 0
-1051 -164 278 386 494 296 404 512 0
-1051 -164 278 386 494 314 422 530 0
-1051 -164 296 404 512 314 422 530 0
-1051 -170 123 0
-1051 -170 195 0
-1051 -170 -74 0
-1051 -170 -80 0
-1051 -170 -20 -140 0
-1051 -170 -26 -140 0
-1051 -170 -32 -140 0
-1051 -170 -56 -158 0
-1051 -170 -62 -158 0
-1051 -170 -68 -158 0
-1051 -170 -86 -176 0
-1051 -170 -92 -176 0
-1051 -170 -98 -176 0
-1051 -170 284 392 500 302 410 518 0
-1051 -170 284 392 500 320 428 536 0
-1051 -170 302 410 518 320 428 536 0
-1051 -122 -164 -188 0
-1051 -122 -170 -194 0
-1056 218 0
-1056 105 0
-1056 183 0
-1056 -104 -182 0
-1056 -2 -128 0
-1056 -8 -128 0
-1056 -14 -128 0
-1056 -38 -146 0
-1056 -44 -146 0
-1056 -50 -146 0
-1056 -74 -164 0
-1056 -80 -164 0
-1056 -86 -164 0
-1061 218 0
-1061 111 0
-1061 183 0
-1061 -110 -182 0
-1061 -8 -128 0
-1061 -14 -128 0
-1061 -20 -128 0
-1061 -44 -146 0
-1061 -50 -146 0
-1061 -56 -146 0
-1061 -74 -164 0
-1061 -80 -164 0
-1061 -86 -164 0
-1061 -92 -164 0
-1066 218 0
-1066 117 0
-1066 183 0
-1066 -116 -182 0
-1066 -14 -128 0
-1066 -20 -128 0
-1066 -26 -128 0
-1066 -50 -146 0
-1066 -56 -146 0
-1066 -62 -146 0
-1066 -80 -164 0
-1066 -86 -164 0
-1066 -92 -164 0
-1066 -98 -164 0
-1071 218 0
-1071 123 0
-1071 183 0
-1071 -122 -182 0
-1071 -20 -128 0
-1071 -26 -128 0
-1071 -32 -128 0
-1071 -56 -146 0
-1071 -62 -146 0
-1071 -68 -146 0
-1071 -86 -164 0
-1071 -92 -164 0
-1071 -98 -164 0
657 662 667 672 677 682 687 692 697 702 707 712 717 722 727 732 737 742 747 752 757 762 767 772 777 782 787 792 797 802 807 812 817 822 827 832 837 842 847 852 857 862 867 872 877 882 887 892 897 902 907 912 917 922 927 932 937 942 947 952 957 962 967 972 977 982 987 992 997 1002 1007 1012 1017 1022 1027 1032 1037 1042 1047 1052 1057 1062 1067 1072 0
-657 -662 0
-657 -667 0
-657 -672 0
-657 -677 0
-657 -682 0
-657 -687 0
-657 -692 0
-657 -697 0
-657 -702 0
-657 -707 0
-657 -712 0
-657 -717 0
-657 -722 0
-657 -727 0
-657 -732 0
-657 -737 0
-657 -742 0
-657 -747 0
-657 -752 0
-657 -757 0
-657 -762 0
-657 -767 0
-657 -772 0
-657 -777 0
-657 -782 0
-657 -787 0
-657 -792 0
-657 -797 0
-657 -802 0
-657 -807 0
-657 -812 0
-657 -817 0
-657 -822 0
-657 -827 0
-657 -832 0
-657 -837 0
-657 -842 0
-657 -847 0
-657 -852 0
-657 -857 0
-657 -862 0
-657 -867 0
-657 -872 0
-657 -877 0
-657 -882 0
-657 -887 0
-657 -892 0
-657 -897 0
-657 -902 0
-657 -907 0
-657 -912 0
-657 -917 0
-657 -922 0
-657 -927 0
-657 -932 0
-657 -937 0
-657 -942 0
-657 -947 0
-657 -952 0
-657 -957 0
-657 -962 0
-657 -967 0
-657 -972 0
-657 -977 0
-657 -982 0
-657 -987 0
-657 -992 0
-657 -997 0
-657 -1002 0
-657 -1007 0
-657 -1012 0
-657 -1017 0
-657 -1022 0
-657 -1027 0
-657 -1032 0
-657 -1037 0
-657 -1042 0
-657 -1047 0
-657 -1052 0
-657 -1057 0
-657 -1062 0
-657 -1067 0
-657 -1072 0
-662 -667 0
-662 -672 0
-662 -677 0
-662 -682 0
-662 -687 0
-662 -692 0
-662 -697 0
-662 -702 0
-662 -707 0
-662 -712 0
-662 -717 0
-662 -722 0
-662 -727 0
-662 -732 0
-662 -737 0
-662 -742 0
-662 -747 0
-662 -752 0
-662 -757 0
-662 -762 0
-662 -767 0
-662 -772 0
-662 -777 0
-662 -782 0
-662 -787 0
-662 -792 0
-662 -797 0
-662 -802 0
-662 -807 0
-662 -812 0
-662 -817 0
-662 -822 0
-662 -827 0
-662 -832 0
-662 -837 0
-662 -842 0
-662 -847 0
-662 -852 0
-662 -857 0
-662 -862 0
-662 -867 0
-662 -872 0
-662 -877 0
-662 -882 0
-662 -887 0
-662 -892 0
-662 -897 0
-662 -902 0
-662 -907 0
-662 -912 0
-662 -917 0
-662 -922 0
-662 -927 0
-662 -932 0
-662 -937 0
-662 -942 0
-662 -947 0
-662 -952 0
-662 -957 0
-662 -962 0
-662 -967 0
-662 -972 0
-662 -977 0
-662 -982 0
-662 -987 0
-662 -992 0
-662 -997 0
-662 -1002 0
-662 -1007 0
-662 -1012 0
-662 -1017 0
-662 -1022 0
-662 -1027 0
-662 -1032 0
-662 -1037 0
-662 -1042 0
-662 -1047 0
-662 -1052 0
-662 -1057 0
-662 -1062 0
-662 -1067 0
-662 -1072 0
-667 -672 0
-667 -677 0
-667 -682 0
-667 -687 0
-667 -692 0
-667 -697 0
-667 -702 0
-667 -707 0
-667 -712 0
-667 -717 0
-667 -722 0
-667 -727 0
-667 -732 0
-667 -737 0
-667 -742 0
-667 -747 0
-667 -752 0
-667 -757 0
-667 -762 0
-667 -767 0
-667 -772 0
-667 -777 0
-667 -782 0
-667 -787 0
-667 -792 0
-667 -797 0
-667 -802 0
-667 -807 0
-667 -812 0
-667 -817 0
-667 -822 0
-667 -827 0
-667 -832 0
-667 -837 0
-667 -842 0
-667 -847 0
-667 -852 0
-667 -857 0
-667 -862 0
-667 -867 0
-667 -872 0
-667 -877 0
-667 -882 0
-667 -887 0
-667 -892 0
-667 -897 0
-667 -902 0
-667 -907 0
-667 -912 0
-667 -917 0
-667 -922 0
-667 -927 0
-667 -932 0
-667 -937 0
-667 -942 0
-667 -947 0
-667 -952 0
-667 -957 0
-667 -962 0
-667 -967 0
-667 -972 0
-667 -977 0
-667 -982 0
-667 -987 0
-667 -992 0
-667 -997 0
-667 -1002 0
-667 -1007 0
-667 -1012 0
-667 -1017 0
-667 -1022 0
-667 -1027 0
-667 -1032 0
-667 -1037 0
-667 -1042 0
-667 -1047 0
-667 -1052 0
-667 -1057 0
-667 -1062 0
-667 -1067 0
-667 -1072 0
-672 -677 0
-672 -682 0
-672 -687 0
-672 -692 0
-672 -697 0
-672 -702 0
-672 -707 0
-672 -712 0
-672 -717 0
-672 -722 0
-672 -727 0
-672 -732 0
-672 -737 0
-672 -742 0
-672 -747 0
-672 -752 0
-672 -757 0
-672 -762 0
-672 -767 0
-672 -772 0
-672 -777 0
-672 -782 0
-672 -787 0
-672 -792 0
-672 -797 0
-672 -802 0
-672 -807 0
-672 -812 0
-672 -817 0
-672 -822 0
-672 -827 0
-672 -832 0
-672 -837 0
-672 -842 0
-672 -847 0
-672 -852 0
-672 -857 0
-672 -862 0
-672 -867 0
-672 -872 0
-672 -877 0
-672 -882 0
-672 -887 0
-672 -892 0
-672 -897 0
-672 -902 0
-672 -907 0
-672 -912 0
-672 -917 0
-672 -922 0
-672 -927 0
-672 -932 0
-672 -937 0
-672 -942 0
-672 -947 0
-672 -952 0
-672 -957 0
-672 -962 0
-672 -967 0
-672 -972 0
-672 -977 0
-672 -982 0
-672 -987 0
-672 -992 0
-672 -997 0
-672 -1002 0
-672 -1007 0
-672 -1012 0
-672 -1017 0
-672 -1022 0
-672 -1027 0
-672 -1032 0
-672 -1037 0
-672 -1042 0
-672 -1047 0
-672 -1052 0
-672 -1057 0
-672 -1062 0
-672 -1067 0
-672 -1072 0
-677 -682 0
-677 -687 0
-677 -692 0
-677 -697 0
-677 -702 0
-677 -707 0
-677 -712 0
-677 -717 0
-677 -722 0
-677 -727 0
-677 -732 0
-677 -737 0
-677 -742 0
-677 -747 0
-677 -752 0
-677 -757 0
-677 -762 0
-677 -767 0
-677 -772 0
-677 -777 0
-677 -782 0
-677 -787 0
-677 -792 0
-677 -797 0
-677 -802 0
-677 -807 0
-677 -812 0
-677 -817 0
-677 -822 0
-677 -827 0
-677 -832 0
-677 -837 0
-677 -842 0
-677 -847 0
-677 -852 0
-677 -857 0
-677 -862 0
-677 -867 0
-677 -872 0
-677 -877 0
-677 -882 0
-677 -887 0
-677 -892 0
-677 -897 0
-677 -902 0
-677 -907 0
-677 -912 0
-677 -917 0
-677 -922 0
-677 -927 0
-677 -932 0
-677 -937 0
-677 -942 0
-677 -947 0
-677 -952 0
-677 -957 0
-677 -962 0
-677 -967 0
-677 -972 0
-677 -977 0
-677 -982 0
-677 -987 0
-677 -992 0
-677 -997 0
-677 -1002 0
-677 -1007 0
-677 -1012 0
-677 -1017 0
-677 -1022 0
-677 -1027 0
-677 -1032 0
-677 -1037 0
-677 -1042 0
-677 -1047 0
-677 -1052 0
-677 -1057 0
-677 -1062 0
-677 -1067 0
-677 -1072 0
-682 -687 0
-682 -692 0
-682 -697 0
-682 -702 0
-682 -707 0
-682 -712 0
-682 -717 0
-682 -722 0
-682 -727 0
-682 -732 0
-682 -737 0
-682 -742 0
-682 -747 0
-682 -752 0
-682 -757 0
-682 -762 0
-682 -767 0
-682 -772 0
-682 -777 0
-682 -782 0
-682 -787 0
-682 -792 0
-682 -797 0
-682 -802 0
-682 -807 0
-682 -812 0
-682 -817 0
-682 -822 0
-682 -827 0
-682 -832 0
-682 -837 0
-682 -842 0
-682 -847 0
-682 -852 0
-682 -857 0
-682 -862 0
-682 -867 0
-682 -872 0
-682 -877 0
-682 -882 0
-682 -887 0
-682 -892 0
-682 -897 0
-682 -902 0
-682 -907 0
-682 -912 0
-682 -917 0
-682 -922 0
-682 -927 0
-682 -932 0
-682 -937 0
-682 -942 0
-682 -947 0
-682 -952 0
-682 -957 0
-682 -962 0
-682 -967 0
-682 -972 0
-682 -977 0
-682 -982 0
-682 -987 0
-682 -992 0
-682 -997 0
-682 -1002 0
-682 -1007 0
-682 -1012 0
-682 -1017 0
-682 -1022 0
-682 -1027 0
-682 -1032 0
-682 -1037 0
-682 -1042 0
-682 -1047 0
-682 -1052 0
-682 -1057 0
-682 -1062 0
-682 -1067 0
-682 -1072 0
-687 -692 0
-687 -697 0
-687 -702 0
-687 -707 0
-687 -712 0
-687 -717 0
-687 -722 0
-687 -727 0
-687 -732 0
-687 -737 0
-687 -742 0
-687 -747 0
-687 -752 0
-687 -757 0
-687 -762 0
-687 -767 0
-687 -772 0
-687 -777 0
-687 -782 0
-687 -787 0
-687 -792 0
-687 -797 0
-687 -802 0
-687 -807 0
-687 -812 0
-687 -817 0
-687 -822 0
-687 -827 0
-687 -832 0
-687 -837 0
-687 -842 0
-687 -847 0
-687 -852 0
-687 -857 0
-687 -862 0
-687 -867 0
-687 -872 0
-687 -877 0
-687 -882 0
-687 -887 0
-687 -892 0
-687 -897 0
-687 -902 0
-687 -907 0
-687 -912 0
-687 -917 0
-687 -922 0
-687 -927 0
-687 -932 0
-687 -937 0
-687 -942 0
-687 -947 0
-687 -952 0
-687 -957 0
-687 -962 0
-687 -967 0
-687 -972 0
-687 -977 0
-687 -982 0
-687 -987 0
-687 -992 0
-687 -997 0
-687 -1002 0
-687 -1007 0
-687 -1012 0
-687 -1017 0
-687 -1022 0
-687 -1027 0
-687 -1032 0
-687 -1037 0
-687 -1042 0
-687 -1047 0
-687 -1052 0
-687 -1057 0
-687 -1062 0
-687 -1067 0
-687 -1072 0
-692 -697 0
-692 -702 0
-692 -707 0
-692 -712 0
-692 -717 0
-692 -722 0
-692 -727 0
-692 -732 0
-692 -737 0
-692 -742 0
-692 -747 0
-692 -752 0
-692 -757 0
-692 -762 0
-692 -767 0
-692 -772 0
-692 -777 0
-692 -782 0
-692 -787 0
-692 -792 0
-692 -797 0
-692 -802 0
-692 -807 0
-692 -812 0
-692 -817 0
-692 -822 0
-692 -827 0
-692 -832 0
-692 -837 0
-692 -842 0
-692 -847 0
-692 -852 0
-692 -857 0
-692 -862 0
-692 -867 0
-692 -872 0
-692 -877 0
-692 -882 0
-692 -887 0
-692 -892 0
-692 -897 0
-692 -902 0
-692 -907 0
-692 -912 0
-692 -917 0
-692 -922 0
-692 -927 0
-692 -932 0
-692 -937 0
-692 -942 0
-692 -947 0
-692 -952 0
-692 -957 0
-692 -962 0
-692 -967 0
-692 -972 0
-692 -977 0
-692 -982 0
-692 -987 0
-692 -992 0
-692 -997 0
-692 -1002 0
-692 -1007 0
-692 -1012 0
-692 -1017 0
-692 -1022 0
-692 -1027 0
-692 -1032 0
-692 -1037 0
-692 -1042 0
-692 -1047 0
-692 -1052 0
-692 -1057 0
-692 -1062 0
-692 -1067 0
-692 -1072 0
-697 -702 0
-697 -707 0
-697 -712 0
-697 -717 0
-697 -722 0
-697 -727 0
-697 -732 0
-697 -737 0
-697 -742 0
-697 -747 0
-697 -752 0
-697 -757 0
-697 -762 0
-697 -767 0
-697 -772 0
-697 -777 0
-697 -782 0
-697 -787 0
-697 -792 0
-697 -797 0
-697 -802 0
-697 -807 0
-697 -812 0
-697 -817 0
-697 -822 0
-697 -827 0
-697 -832 0
-697 -837 0
-697 -842 0
-697 -847 0
-697 -852 0
-697 -857 0
-697 -862 0
-697 -867 0
-697 -872 0
-697 -877 0
-697 -882 0
-697 -887 0
-697 -892 0
-697 -897 0
-697 -902 0
-697 -907 0
-697 -912 0
-697 -917 0
-697 -922 0
-697 -927 0
-697 -932 0
-697 -937 0
-697 -942 0
-697 -947 0
-697 -952 0
-697 -957 0
-697 -962 0
-697 -967 0
-697 -972 0
-697 -977 0
-697 -982 0
-697 -987 0
-697 -992 0
-697 -997 0
-697 -1002 0
-697 -1007 0
-697 -1012 0
-697 -1017 0
-697 -1022 0
-697 -1027 0
-697 -1032 0
-697 -1037 0
-697 -1042 0
-697 -1047 0
-697 -1052 0
-697 -1057 0
-697 -1062 0
-697 -1067 0
-697 -1072 0
-702 -707 0
-702 -712 0
-702 -717 0
-702 -722 0
-702 -727 0
-702 -732 0
-702 -737 0
-702 -742 0
-702 -747 0
-702 -752 0
-702 -757 0
-702 -762 0
-702 -767 0
-702 -772 0
-702 -777 0
-702 -782 0
-702 -787 0
-702 -792 0
-702 -797 0
-702 -802 0
-702 -807 0
-702 -812 0
-702 -817 0
-702 -822 0
-702 -827 0
-702 -832 0
-702 -837 0
-702 -842 0
-702 -847 0
-702 -852 0
-702 -857 0
-702 -862 0
-702 -867 0
-702 -872 0
-702 -877 0
-702 -882 0
-702 -887 0
-702 -892 0
-702 -897 0
-702 -902 0
-702 -907 0
-702 -912 0
-702 -917 0
-702 -922 0
-702 -927 0
-702 -932 0
-702 -937 0
-702 -942 0
-702 -947 0
-702 -952 0
-702 -957 0
-702 -962 0
-702 -967 0
-702 -972 0
-702 -977 0
-702 -982 0
-702 -987 0
-702 -992 0
-702 -997 0
-702 -1002 0
-702 -1007 0
-702 -1012 0
-702 -1017 0
-702 -1022 0
-702 -1027 0
-702 -1032 0
-702 -1037 0
-702 -1042 0
-702 -1047 0
-702 -1052 0
-702 -1057 0
-702 -1062 0
-702 -1067 0
-702 -1072 0
-707 -712 0
-707 -717 0
-707 -722 0
-707 -727 0
-707 -732 0
-707 -737 0
-707 -742 0
-707 -747 0
-707 -752 0
-707 -757 0
-707 -762 0
-707 -767 0
-707 -772 0
-707 -777 0
-707 -782 0
-707 -787 0
-707 -792 0
-707 -797 0
-707 -802 0
-707 -807 0
-707 -812 0
-707 -817 0
-707 -822 0
-707 -827 0
-707 -832 0
-707 -837 0
-707 -842 0
-707 -847 0
-707 -852 0
-707 -857 0
-707 -862 0
-707 -867 0
-707 -872 0
-707 -877 0
-707 -882 0
-707 -887 0
-707 -892 0
-707 -897 0
-707 -902 0
-707 -907 0
-707 -912 0
-707 -917 0
-707 -922 0
-707 -927 0
-707 -932 0
-707 -937 0
-707 -942 0
-707 -947 0
-707 -952 0
-707 -957 0
-707 -962 0
-707 -967 0
-707 -972 0
-707 -977 0
-707 -982 0
-707 -987 0
-707 -992 0
-707 -997 0
-707 -1002 0
-707 -1007 0
-707 -1012 0
-707 -1017 0
-707 -1022 0
-707 -1027 0
-707 -1032 0
-707 -1037 0
-707 -1042 0
-707 -1047 0
-707 -1052 0
-707 -1057 0
-707 -1062 0
-707 -1067 0
-707 -1072 0
-712 -717 0
-712 -722 0
-712 -727 0
-712 -732 0
-712 -737 0
-712 -742 0
-712 -747 0
-712 -752 0
-712 -757 0
-712 -762 0
-712 -767 0
-712 -772 0
-712 -777 0
-712 -782 0
-712 -787 0
-712 -792 0
-712 -797 0
-712 -802 0
-712 -807 0
-712 -812 0
-712 -817 0
-712 -822 0
-712 -827 0
-712 -832 0
-712 -837 0
-712 -842 0
-712 -847 0
-712 -852 0
-712 -857 0
-712 -862 0
-712 -867 0
-712 -872 0
-712 -877 0
-712 -882 0
-712 -887 0
-712 -892 0
-712 -897 0
-712 -902 0
-712 -907 0
-712 -912 0
-712 -917 0
-712 -922 0
-712 -927 0
-712 -932 0
-712 -937 0
-712 -942 0
-712 -947 0
-712 -952 0
-712 -957 0
-712 -962 0
-712 -967 0
-712 -972 0
-712 -977 0
-712 -982 0
-712 -987 0
-712 -992 0
-712 -997 0
-712 -1002 0
-712 -1007 0
-712 -1012 0
-712 -1017 0
-712 -1022 0
-712 -1027 0
-712 -1032 0
-712 -1037 0
-712 -1042 0
-712 -1047 0
-712 -1052 0
-712 -1057 0
-712 -1062 0
-712 -1067 0
-712 -1072 0
-717 -722 0
-717 -727 0
-717 -732 0
-717 -737 0
-717 -742 0
-717 -747 0
-717 -752 0
-717 -757 0
-717 -762 0
-717 -767 0
-717 -772 0
-717 -777 0
-717 -782 0
-717 -787 0
-717 -792 0
-717 -797 0
-717 -802 0
-717 -807 0
-717 -812 0
-717 -817 0
-717 -822 0
-717 -827 0
-717 -832 0
-717 -837 0
-717 -842 0
-717 -847 0
-717 -852 0
-717 -857 0
-717 -862 0
-717 -867 0
-717 -872 0
-717 -877 0
-717 -882 0
-717 -887 0
-717 -892 0
-717 -897 0
-717 -902 0
-717 -907 0
-717 -912 0
-717 -917 0
-717 -922 0
-717 -927 0
-717 -932 0
-717 -937 0
-717 -942 0
-717 -947 0
-717 -952 0
-717 -957 0
-717 -962 0
-717 -967 0
-717 -972 0
-717 -977 0
-717 -982 0
-717 -987 0
-717 -992 0
-717 -997 0
-717 -1002 0
-717 -1007 0
-717 -1012 0
-717 -1017 0
-717 -1022 0
-717 -1027 0
-717 -1032 0
-717 -1037 0
-717 -1042 0
-717 -1047 0
-717 -1052 0
-717 -1057 0
-717 -1062 0
-717 -1067 0
-717 -1072 0
-722 -727 0
-722 -732 0
-722 -737 0
-722 -742 0
-722 -747 0
-722 -752 0
-722 -757 0
-722 -762 0
-722 -767 0
-722 -772 0
-722 -777 0
-722 -782 0
-722 -787 0
-722 -792 0
-722 -797 0
-722 -802 0
-722 -807 0
-722 -812 0
-722 -817 0
-722 -822 0
-722 -827 0
-722 -832 0
-722 -837 0
-722 -842 0
-722 -847 0
-722 -852 0
-722 -857 0
-722 -862 0
-722 -867 0
-722 -872 0
-722 -877 0
-722 -882 0
-722 -887 0
-722 -892 0
-722 -897 0
-722 -902 0
-722 -907 0
-722 -912 0
-722 -917 0
-722 -922 0
-722 -927 0
-722 -932 0
-722 -937 0
-722 -942 0
-722 -947 0
-722 -952 0
-722 -957 0
-722 -962 0
-722 -967 0
-722 -972 0
-722 -977 0
-722 -982 0
-722 -987 0
-722 -992 0
-722 -997 0
-722 -1002 0
-722 -1007 0
-722 -1012 0
-722 -1017 0
-722 -1022 0
-722 -1027 0
-722 -1032 0
-722 -1037 0
-722 -1042 0
-722 -1047 0
-722 -1052 0
-722 -1057 0
-722 -1062 0
-722 -1067 0
-722 -1072 0
-727 -732 0
-727 -737 0
-727 -742 0
-727 -747 0
-727 -752 0
-727 -757 0
-727 -762 0
-727 -767 0
-727 -772 0
-727 -777 0
-727 -782 0
-727 -787 0
-727 -792 0
-727 -797 0
-727 -802 0
-727 -807 0
-727 -812 0
-727 -817 0
-727 -822 0
-727 -827 0
-727 -832 0
-727 -837 0
-727 -842 0
-727 -847 0
-727 -852 0
-727 -857 0
-727 -862 0
-727 -867 0
-727 -872 0
-727 -877 0
-727 -882 0
-727 -887 0
-727 -892 0
-727 -897 0
-727 -902 0
-727 -907 0
-727 -912 0
-727 -917 0
-727 -922 0
-727 -927 0
-727 -932 0
-727 -937 0
-727 -942 0
-727 -947 0
-727 -952 0
-727 -957 0
-727 -962 0
-727 -967 0
-727 -972 0
-727 -977 0
-727 -982 0
-727 -987 0
-727 -992 0
-727 -997 0
-727 -1002 0
-727 -1007 0
-727 -1012 0
-727 -1017 0
-727 -1022 0
-727 -1027 0
-727 -1032 0
-727 -1037 0
-727 -1042 0
-727 -1047 0
-727 -1052 0
-727 -1057 0
-727 -1062 0
-727 -1067 0
-727 -1072 0
-732 -737 0
-732 -742 0
-732 -747 0
-732 -752 0
-732 -757 0
-732 -762 0
-732 -767 0
-732 -772 0
-732 -777 0
-732 -782 0
-732 -787 0
-732 -792 0
-732 -797 0
-732 -802 0
-732 -807 0
-732 -812 0
-732 -817 0
-732 -822 0
-732 -827 0
-732 -832 0
-732 -837 0
-732 -842 0
-732 -847 0
-732 -852 0
-732 -857 0
-732 -862 0
-732 -867 0
-732 -872 0
-732 -877 0
-732 -882 0
-732 -887 0
-732 -892 0
-732 -897 0
-732 -902 0
-732 -907 0
-732 -912 0
-732 -917 0
-732 -922 0
-732 -927 0
-732 -932 0
-732 -937 0
-732 -942 0
-732 -947 0
-732 -952 0
-732 -957 0
-732 -962 0
-732 -967 0
-732 -972 0
-732 -977 0
-732 -982 0
-732 -987 0
-732 -992 0
-732 -997 0
-732 -1002 0
-732 -1007 0
-732 -1012 0
-732 -1017 0
-732 -1022 0
-732 -1027 0
-732 -1032 0
-732 -1037 0
-732 -1042 0
-732 -1047 0
-732 -1052 0
-732 -1057 0
-732 -1062 0
-732 -1067 0
-732 -1072 0
-737 -742 0
-737 -747 0
-737 -752 0
-737 -757 0
-737 -762 0
-737 -767 0
-737 -772 0
-737 -777 0
-737 -782 0
-737 -787 0
-737 -792 0
-737 -797 0
-737 -802 0
-737 -807 0
-737 -812 0
-737 -817 0
-737 -822 0
-737 -827 0
-737 -832 0
-737 -837 0
-737 -842 0
-737 -847 0
-737 -852 0
-737 -857 0
-737 -862 0
-737 -867 0
-737 -872 0
-737 -877 0
-737 -882 0
-737 -887 0
-737 -892 0
-737 -897 0
-737 -902 0
-737 -907 0
-737 -912 0
-737 -917 0
-737 -922 0
-737 -927 0
-737 -932 0
-737 -937 0
-737 -942 0
-737 -947 0
-737 -952 0
-737 -957 0
-737 -962 0
-737 -967 0
-737 -972 0
-737 -977 0
-737 -982 0
-737 -987 0
-737 -992 0
-737 -997 0
-737 -1002 0
-737 -1007 0
-737 -1012 0
-737 -1017 0
-737 -1022 0
-737 -1027 0
-737 -1032 0
-737 -1037 0
-737 -1042 0
-737 -1047 0
-737 -1052 0
-737 -1057 0
-737 -1062 0
-737 -1067 0
-737 -1072 0
-742 -747 0
-742 -752 0
-742 -757 0
-742 -762 0
-742 -767 0
-742 -772 0
-742 -777 0
-742 -782 0
-742 -787 0
-742 -792 0
-742 -797 0
-742 -802 0
-742 -807 0
-742 -812 0
-742 -817 0
-742 -822 0
-742 -827 0
-742 -832 0
-742 -837 0
-742 -842 0
-742 -847 0
-742 -852 0
-742 -857 0
-742 -862 0
-742 -867 0
-742 -872 0
-742 -877 0
-742 -882 0
-742 -887 0
-742 -892 0
-742 -897 0
-742 -902 0
-742 -907 0
-742 -912 0
-742 -917 0
-742 -922 0
-742 -927 0
-742 -932 0
-742 -937 0
-742 -942 0
-742 -947 0
-742 -952 0
-742 -957 0
-742 -962 0
-742 -967 0
-742 -972 0
-742 -977 0
-742 -982 0
-742 -987 0
-742 -992 0
-742 -997 0
-742 -1002 0
-742 -1007 0
-742 -1012 0
-742 -1017 0
-742 -1022 0
-742 -1027 0
-742 -1032 0
-742 -1037 0
-742 -1042 0
-742 -1047 0
-742 -1052 0
-742 -1057 0
-742 -1062 0
-742 -1067 0
-742 -1072 0
-747 -752 0
-747 -757 0
-747 -762 0
-747 -767 0
-747 -772 0
-747 -777 0
-747 -782 0
-747 -787 0
-747 -792 0
-747 -797 0
-747 -802 0
-747 -807 0
-747 -812 0
-747 -817 0
-747 -822 0
-747 -827 0
-747 -832 0
-747 -837 0
-747 -842 0
-747 -847 0
-747 -852 0
-747 -857 0
-747 -862 0
-747 -867 0
-747 -872 0
-747 -877 0
-747 -882 0
-747 -887 0
-747 -892 0
-747 -897 0
-747 -902 0
-747 -907 0
-747 -912 0
-747 -917 0
-747 -922 0
-747 -927 0
-747 -932 0
-747 -937 0
-747 -942 0
-747 -947 0
-747 -952 0
-747 -957 0
-747 -962 0
-747 -967 0
-747 -972 0
-747 -977 0
-747 -982 0
-747 -987 0
-747 -992 0
-747 -997 0
-747 -1002 0
-747 -1007 0
-747 -1012 0
-747 -1017 0
-747 -1022 0
-747 -1027 0
-747 -1032 0
-747 -1037 0
-747 -1042 0
-747 -1047 0
-747 -1052 0
-747 -1057 0
-747 -1062 0
-747 -1067 0
-747 -1072 0
-752 -757 0
-752 -762 0
-752 -767 0
-752 -772 0
-752 -777 0
-752 -782 0
-752 -787 0
-752 -792 0
-752 -797 0
-752 -802 0
-752 -807 0
-752 -812 0
-752 -817 0
-752 -822 0
-752 -827 0
-752 -832 0
-752 -837 0
-752 -842 0
-752 -847 0
-752 -852 0
-752 -857 0
-752 -862 0
-752 -867 0
-752 -872 0
-752 -877 0
-752 -882 0
-752 -887 0
-752 -892 0
-752 -897 0
-752 -902 0
-752 -907 0
-752 -912 0
-752 -917 0
-752 -922 0
-752 -927 0
-752 -932 0
-752 -937 0
-752 -942 0
-752 -947 0
-752 -952 0
-752 -957 0
-752 -962 0
-752 -967 0
-752 -972 0
-752 -977 0
-752 -982 0
-752 -987 0
-752 -992 0
-752 -997 0
-752 -1002 0
-752 -1007 0
-752 -1012 0
-752 -1017 0
-752 -1022 0
-752 -1027 0
-752 -1032 0
-752 -1037 0
-752 -1042 0
-752 -1047 0
-752 -1052 0
-752 -1057 0
-752 -1062 0
-752 -1067 0
-752 -1072 0
-757 -762 0
-757 -767 0
-757 -772 0
-757 -777 0
-757 -782 0
-757 -787 0
-757 -792 0
-757 -797 0
-757 -802 0
-757 -807 0
-757 -812 0
-757 -817 0
-757 -822 0
-757 -827 0
-757 -832 0
-757 -837 0
-757 -842 0
-757 -847 0
-757 -852 0
-757 -857 0
-757 -862 0
-757 -867 0
-757 -872 0
-757 -877 0
-757 -882 0
-757 -887 0
-757 -892 0
-757 -897 0
-757 -902 0
-757 -907 0
-757 -912 0
-757 -917 0
-757 -922 0
-757 -927 0
-757 -932 0
-757 -937 0
-757 -942 0
-757 -947 0
-757 -952 0
-757 -957 0
-757 -962 0
-757 -967 0
-757 -972 0
-757 -977 0
-757 -982 0
-757 -987 0
-757 -992 0
-757 -997 0
-757 -1002 0
-757 -1007 0
-757 -1012 0
-757 -1017 0
-757 -1022 0
-757 -1027 0
-757 -1032 0
-757 -1037 0
-757 -1042 0
-757 -1047 0
-757 -1052 0
-757 -1057 0
-757 -1062 0
-757 -1067 0
-757 -1072 0
-762 -767 0
-762 -772 0
-762 -777 0
-762 -782 0
-762 -787 0
-762 -792 0
-762 -797 0
-762 -802 0
-762 -807 0
-762 -812 0
-762 -817 0
-762 -822 0
-762 -827 0
-762 -832 0
-762 -837 0
-762 -842 0
-762 -847 0
-762 -852 0
-762 -857 0
-762 -862 0
-762 -867 0
-762 -872 0
-762 -877 0
-762 -882 0
-762 -887 0
-762 -892 0
-762 -897 0
-762 -902 0
-762 -907 0
-762 -912 0
-762 -917 0
-762 -922 0
-762 -927 0
-762 -932 0
-762 -937 0
-762 -942 0
-762 -947 0
-762 -952 0
-762 -957 0
-762 -962 0
-762 -967 0
-762 -972 0
-762 -977 0
-762 -982 0
-762 -987 0
-762 -992 0
-762 -997 0
-762 -1002 0
-762 -1007 0
-762 -1012 0
-762 -1017 0
-762 -1022 0
-762 -1027 0
-762 -1032 0
-762 -1037 0
-762 -1042 0
-762 -1047 0
-762 -1052 0
-762 -1057 0
-762 -1062 0
-762 -1067 0
-762 -1072 0
-767 -772 0
-767 -777 0
-767 -782 0
-767 -787 0
-767 -792 0
-767 -797 0
-767 -802 0
-767 -807 0
-767 -812 0
-767 -817 0
-767 -822 0
-767 -827 0
-767 -832 0
-767 -837 0
-767 -842 0
-767 -847 0
-767 -852 0
-767 -857 0
-767 -862 0
-767 -867 0
-767 -872 0
-767 -877 0
-767 -882 0
-767 -887 0
-767 -892 0
-767 -897 0
-767 -902 0
-767 -907 0
-767 -912 0
-767 -917 0
-767 -922 0
-767 -927 0
-767 -932 0
-767 -937 0
-767 -942 0
-767 -947 0
-767 -952 0
-767 -957 0
-767 -962 0
-767 -967 0
-767 -972 0
-767 -977 0
-767 -982 0
-767 -987 0
-767 -992 0
-767 -997 0
-767 -1002 0
-767 -1007 0
-767 -1012 0
-767 -1017 0
-767 -1022 0
-767 -1027 0
-767 -1032 0
-767 -1037 0
-767 -1042 0
-767 -1047 0
-767 -1052 0
-767 -1057 0
-767 -1062 0
-767 -1067 0
-767 -1072 0
-772 -777 0
-772 -782 0
-772 -787 0
-772 -792 0
-772 -797 0
-772 -802 0
-772 -807 0
-772 -812 0
-772 -817 0
-772 -822 0
-772 -827 0
-772 -832 0
-772 -837 0
-772 -842 0
-772 -847 0
-772 -852 0
-772 -857 0
-772 -862 0
-772 -867 0
-772 -872 0
-772 -877 0
-772 -882 0
-772 -887 0
-772 -892 0
-772 -897 0
-772 -902 0
-772 -907 0
-772 -912 0
-772 -917 0
-772 -922 0
-772 -927 0
-772 -932 0
-772 -937 0
-772 -942 0
-772 -947 0
-772 -952 0
-772 -957 0
-772 -962 0
-772 -967 0
-772 -972 0
-772 -977 0
-772 -982 0
-772 -987 0
-772 -992 0
-772 -997 0
-772 -1002 0
-772 -1007 0
-772 -1012 0
-772 -1017 0
-772 -1022 0
-772 -1027 0
-772 -1032 0
-772 -1037 0
-772 -1042 0
-772 -1047 0
-772 -1052 0
-772 -1057 0
-772 -1062 0
-772 -1067 0
-772 -1072 0
-777 -782 0
-777 -787 0
-777 -792 0
-777 -797 0
-777 -802 0
-777 -807 0
-777 -812 0
-777 -817 0
-777 -822 0
-777 -827 0
-777 -832 0
-777 -837 0
-777 -842 0
-777 -847 0
-777 -852 0
-777 -857 0
-777 -862 0
-777 -867 0
-777 -872 0
-777 -877 0
-777 -882 0
-777 -887 0
-777 -892 0
-777 -897 0
-777 -902 0
-777 -907 0
-777 -912 0
-777 -917 0
-777 -922 0
-777 -927 0
-777 -932 0
-777 -937 0
-777 -942 0
-777 -947 0
-777 -952 0
-777 -957 0
-777 -962 0
-777 -967 0
-777 -972 0
-777 -977 0
-777 -982 0
-777 -987 0
-777 -992 0
-777 -997 0
-777 -1002 0
-777 -1007 0
-777 -1012 0
-777 -1017 0
-777 -1022 0
-777 -1027 0
-777 -1032 0
-777 -1037 0
-777 -1042 0
-777 -1047 0
-777 -1052 0
-777 -1057 0
-777 -1062 0
-777 -1067 0
-777 -1072 0
-782 -787 0
-782 -792 0
-782 -797 0
-782 -802 0
-782 -807 0
-782 -812 0
-782 -817 0
-782 -822 0
-782 -827 0
-782 -832 0
-782 -837 0
-782 -842 0
-782 -847 0
-782 -852 0
-782 -857 0
-782 -862 0
-782 -867 0
-782 -872 0
-782 -877 0
-782 -882 0
-782 -887 0
-782 -892 0
-782 -897 0
-782 -902 0
-782 -907 0
-782 -912 0
-782 -917 0
-782 -922 0
-782 -927 0
-782 -932 0
-782 -937 0
-782 -942 0
-782 -947 0
-782 -952 0
-782 -957 0
-782 -962 0
-782 -967 0
-782 -972 0
-782 -977 0
-782 -982 0
-782 -987 0
-782 -992 0
-782 -997 0
-782 -1002 0
-782 -1007 0
-782 -1012 0
-782 -1017 0
-782 -1022 0
-782 -1027 0
-782 -1032 0
-782 -1037 0
-782 -1042 0
-782 -1047 0
-782 -1052 0
-782 -1057 0
-782 -1062 0
-782 -1067 0
-782 -1072 0
-787 -792 0
-787 -797 0
-787 -802 0
-787 -807 0
-787 -812 0
-787 -817 0
-787 -822 0
-787 -827 0
-787 -832 0
-787 -837 0
-787 -842 0
-787 -847 0
-787 -852 0
-787 -857 0
-787 -862 0
-787 -867 0
-787 -872 0
-787 -877 0
-787 -882 0
-787 -887 0
-787 -892 0
-787 -897 0
-787 -902 0
-787 -907 0
-787 -912 0
-787 -917 0
-787 -922 0
-787 -927 0
-787 -932 0
-787 -937 0
-787 -942 0
-787 -947 0
-787 -952 0
-787 -957 0
-787 -962 0
-787 -967 0
-787 -972 0
-787 -977 0
-787 -982 0
-787 -987 0
-787 -992 0
-787 -997 0
-787 -1002 0
-787 -1007 0
-787 -1012 0
-787 -1017 0
-787 -1022 0
-787 -1027 0
-787 -1032 0
-787 -1037 0
-787 -1042 0
-787 -1047 0
-787 -1052 0
-787 -1057 0
-787 -1062 0
-787 -1067 0
-787 -1072 0
-792 -797 0
-792 -802 0
-792 -807 0
-792 -812 0
-792 -817 0
-792 -822 0
-792 -827 0
-792 -832 0
-792 -837 0
-792 -842 0
-792 -847 0
-792 -852 0
-792 -857 0
-792 -862 0
-792 -867 0
-792 -872 0
-792 -877 0
-792 -882 0
-792 -887 0
-792 -892 0
-792 -897 0
-792 -902 0
-792 -907 0
-792 -912 0
-792 -917 0
-792 -922 0
-792 -927 0
-792 -932 0
-792 -937 0
-792 -942 0
-792 -947 0
-792 -952 0
-792 -957 0
-792 -962 0
-792 -967 0
-792 -972 0
-792 -977 0
-792 -982 0
-792 -987 0
-792 -992 0
-792 -997 0
-792 -1002 0
-792 -1007 0
-792 -1012 0
-792 -1017 0
-792 -1022 0
-792 -1027 0
-792 -1032 0
-792 -1037 0
-792 -1042 0
-792 -1047 0
-792 -1052 0
-792 -1057 0
-792 -1062 0
-792 -1067 0
-792 -1072 0
-797 -802 0
-797 -807 0
-797 -812 0
-797 -817 0
-797 -822 0
-797 -827 0
-797 -832 0
-797 -837 0
-797 -842 0
-797 -847 0
-797 -852 0
-797 -857 0
-797 -862 0
-797 -867 0
-797 -872 0
-797 -877 0
-797 -882 0
-797 -887 0
-797 -892 0
-797 -897 0
-797 -902 0
-797 -907 0
-797 -912 0
-797 -917 0
-797 -922 0
-797 -927 0
-797 -932 0
-797 -937 0
-797 -942 0
-797 -947 0
-797 -952 0
-797 -957 0
-797 -962 0
-797 -967 0
-797 -972 0
-797 -977 0
-797 -982 0
-797 -987 0
-797 -992 0
-797 -997 0
-797 -1002 0
-797 -1007 0
-797 -1012 0
-797 -1017 0
-797 -1022 0
-797 -1027 0
-797 -1032 0
-797 -1037 0
-797 -1042 0
-797 -1047 0
-797 -1052 0
-797 -1057 0
-797 -1062 0
-797 -1067 0
-797 -1072 0
-802 -807 0
-802 -812 0
-802 -817 0
-802 -822 0
-802 -827 0
-802 -832 0
-802 -837 0
-802 -842 0
-802 -847 0
-802 -852 0
-802 -857 0
-802 -862 0
-802 -867 0
-802 -872 0
-802 -877 0
-802 -882 0
-802 -887 0
-802 -892 0
-802 -897 0
-802 -902 0
-802 -907 0
-802 -912 0
-802 -917 0
-802 -922 0
-802 -927 0
-802 -932 0
-802 -937 0
-802 -942 0
-802 -947 0
-802 -952 0
-802 -957 0
-802 -962 0
-802 -967 0
-802 -972 0
-802 -977 0
-802 -982 0
-802 -987 0
-802 -992 0
-802 -997 0
-802 -1002 0
-802 -1007 0
-802 -1012 0
-802 -1017 0
-802 -1022 0
-802 -1027 0
-802 -1032 0
-802 -1037 0
-802 -1042 0
-802 -1047 0
-802 -1052 0
-802 -1057 0
-802 -1062 0
-802 -1067 0
-802 -1072 0
-807 -812 0
-807 -817 0
-807 -822 0
-807 -827 0
-807 -832 0
-807 -837 0
-807 -842 0
-807 -847 0
-807 -852 0
-807 -857 0
-807 -862 0
-807 -867 0
-807 -872 0
-807 -877 0
-807 -882 0
-807 -887 0
-807 -892 0
-807 -897 0
-807 -902 0
-807 -907 0
-807 -912 0
-807 -917 0
-807 -922 0
-807 -927 0
-807 -932 0
-807 -937 0
-807 -942 0
-807 -947 0
-807 -952 0
-807 -957 0
-807 -962 0
-807 -967 0
-807 -972 0
-807 -977 0
-807 -982 0
-807 -987 0
-807 -992 0
-807 -997 0
-807 -1002 0
-807 -1007 0
-807 -1012 0
-807 -1017 0
-807 -1022 0
-807 -1027 0
-807 -1032 0
-807 -1037 0
-807 -1042 0
-807 -1047 0
-807 -1052 0
-807 -1057 0
-807 -1062 0
-807 -1067 0
-807 -1072 0
-812 -817 0
-812 -822 0
-812 -827 0
-812 -832 0
-812 -837 0
-812 -842 0
-812 -847 0
-812 -852 0
-812 -857 0
-812 -862 0
-812 -867 0
-812 -872 0
-812 -877 0
-812 -882 0
-812 -887 0
-812 -892 0
-812 -897 0
-812 -902 0
-812 -907 0
-812 -912 0
-812 -917 0
-812 -922 0
-812 -927 0
-812 -932 0
-812 -937 0
-812 -942 0
-812 -947 0
-812 -952 0
-812 -957 0
-812 -962 0
-812 -967 0
-812 -972 0
-812 -977 0
-812 -982 0
-812 -987 0
-812 -992 0
-812 -997 0
-812 -1002 0
-812 -1007 0
-812 -1012 0
-812 -1017 0
-812 -1022 0
-812 -1027 0
-812 -1032 0
-812 -1037 0
-812 -1042 0
-812 -1047 0
-812 -1052 0
-812 -1057 0
-812 -1062 0
-812 -1067 0
-812 -1072 0
-817 -822 0
-817 -827 0
-817 -832 0
-817 -837 0
-817 -842 0
-817 -847 0
-817 -852 0
-817 -857 0
-817 -862 0
-817 -867 0
-817 -872 0
-817 -877 0
-817 -882 0
-817 -887 0
-817 -892 0
-817 -897 0
-817 -902 0
-817 -907 0
-817 -912 0
-817 -917 0
-817 -922 0
-817 -927 0
-817 -932 0
-817 -937 0
-817 -942 0
-817 -947 0
-817 -952 0
-817 -957 0
-817 -962 0
-817 -967 0
-817 -972 0
-817 -977 0
-817 -982 0
-817 -987 0
-817 -992 0
-817 -997 0
-817 -1002 0
-817 -1007 0
-817 -1012 0
-817 -1017 0
-817 -1022 0
-817 -1027 0
-817 -1032 0
-817 -1037 0
-817 -1042 0
-817 -1047 0
-817 -1052 0
-817 -1057 0
-817 -1062 0
-817 -1067 0
-817 -1072 0
-822 -827 0
-822 -832 0
-822 -837 0
-822 -842 0
-822 -847 0
-822 -852 0
-822 -857 0
-822 -862 0
-822 -867 0
-822 -872 0
-822 -877 0
-822 -882 0
-822 -887 0
-822 -892 0
-822 -897 0
-822 -902 0
-822 -907 0
-822 -912 0
-822 -917 0
-822 -922 0
-822 -927 0
-822 -932 0
-822 -937 0
-822 -942 0
-822 -947 0
-822 -952 0
-822 -957 0
-822 -962 0
-822 -967 0
-822 -972 0
-822 -977 0
-822 -982 0
-822 -987 0
-822 -992 0
-822 -997 0
-822 -1002 0
-822 -1007 0
-822 -1012 0
-822 -1017 0
-822 -1022 0
-822 -1027 0
-822 -1032 0
-822 -1037 0
-822 -1042 0
-822 -1047 0
-822 -1052 0
-822 -1057 0
-822 -1062 0
-822 -1067 0
-822 -1072 0
-827 -832 0
-827 -837 0
-827 -842 0
-827 -847 0
-827 -852 0
-827 -857 0
-827 -862 0
-827 -867 0
-827 -872 0
-827 -877 0
-827 -882 0
-827 -887 0
-827 -892 0
-827 -897 0
-827 -902 0
-827 -907 0
-827 -912 0
-827 -917 0
-827 -922 0
-827 -927 0
-827 -932 0
-827 -937 0
-827 -942 0
-827 -947 0
-827 -952 0
-827 -957 0
-827 -962 0
-827 -967 0
-827 -972 0
-827 -977 0
-827 -982 0
-827 -987 0
-827 -992 0
-827 -997 0
-827 -1002 0
-827 -1007 0
-827 -1012 0
-827 -1017 0
-827 -1022 0
-827 -1027 0
-827 -1032 0
-827 -1037 0
-827 -1042 0
-827 -1047 0
-827 -1052 0
-827 -1057 0
-827 -1062 0
-827 -1067 0
-827 -1072 0
-832 -837 0
-832 -842 0
-832 -847 0
-832 -852 0
-832 -857 0
-832 -862 0
-832 -867 0
-832 -872 0
-832 -877 0
-832 -882 0
-832 -887 0
-832 -892 0
-832 -897 0
-832 -902 0
-832 -907 0
-832 -912 0
-832 -917 0
-832 -922 0
-832 -927 0
-832 -932 0
-832 -937 0
-832 -942 0
-832 -947 0
-832 -952 0
-832 -957 0
-832 -962 0
-832 -967 0
-832 -972 0
-832 -977 0
-832 -982 0
-832 -987 0
-832 -992 0
-832 -997 0
-832 -1002 0
-832 -1007 0
-832 -1012 0
-832 -1017 0
-832 -1022 0
-832 -1027 0
-832 -1032 0
-832 -1037 0
-832 -1042 0
-832 -1047 0
-832 -1052 0
-832 -1057 0
-832 -1062 0
-832 -1067 0
-832 -1072 0
-837 -842 0
-837 -847 0
-837 -852 0
-837 -857 0
-837 -862 0
-837 -867 0
-837 -872 0
-837 -877 0
-837 -882 0
-837 -887 0
-837 -892 0
-837 -897 0
-837 -902 0
-837 -907 0
-837 -912 0
-837 -917 0
-837 -922 0
-837 -927 0
-837 -932 0
-837 -937 0
-837 -942 0
-837 -947 0
-837 -952 0
-837 -957 0
-837 -962 0
-837 -967 0
-837 -972 0
-837 -977 0
-837 -982 0
-837 -987 0
-837 -992 0
-837 -997 0
-837 -1002 0
-837 -1007 0
-837 -1012 0
-837 -1017 0
-837 -1022 0
-837 -1027 0
-837 -1032 0
-837 -1037 0
-837 -1042 0
-837 -1047 0
-837 -1052 0
-837 -1057 0
-837 -1062 0
-837 -1067 0
-837 -1072 0
-842 -847 0
-842 -852 0
-842 -857 0
-842 -862 0
-842 -867 0
-842 -872 0
-842 -877 0
-842 -882 0
-842 -887 0
-842 -892 0
-842 -897 0
-842 -902 0
-842 -907 0
-842 -912 0
-842 -917 0
-842 -922 0
-842 -927 0
-842 -932 0
-842 -937 0
-842 -942 0
-842 -947 0
-842 -952 0
-842 -957 0
-842 -962 0
-842 -967 0
-842 -972 0
-842 -977 0
-842 -982 0
-842 -987 0
-842 -992 0
-842 -997 0
-842 -1002 0
-842 -1007 0
-842 -1012 0
-842 -1017 0
-842 -1022 0
-842 -1027 0
-842 -1032 0
-842 -1037 0
-842 -1042 0
-842 -1047 0
-842 -1052 0
-842 -1057 0
-842 -1062 0
-842 -1067 0
-842 -1072 0
-847 -852 0
-847 -857 0
-847 -862 0
-847 -867 0
-847 -872 0
-847 -877 0
-847 -882 0
-847 -887 0
-847 -892 0
-847 -897 0
-847 -902 0
-847 -907 0
-847 -912 0
-847 -917 0
-847 -922 0
-847 -927 0
-847 -932 0
-847 -937 0
-847 -942 0
-847 -947 0
-847 -952 0
-847 -957 0
-847 -962 0
-847 -967 0
-847 -972 0
-847 -977 0
-847 -982 0
-847 -987 0
-847 -992 0
-847 -997 0
-847 -1002 0
-847 -1007 0
-847 -1012 0
-847 -1017 0
-847 -1022 0
-847 -1027 0
-847 -1032 0
-847 -1037 0
-847 -1042 0
-847 -1047 0
-847 -1052 0
-847 -1057 0
-847 -1062 0
-847 -1067 0
-847 -1072 0
-852 -857 0
-852 -862 0
-852 -867 0
-852 -872 0
-852 -877 0
-852 -882 0
-852 -887 0
-852 -892 0
-852 -897 0
-852 -902 0
-852 -907 0
-852 -912 0
-852 -917 0
-852 -922 0
-852 -927 0
-852 -932 0
-852 -937 0
-852 -942 0
-852 -947 0
-852 -952 0
-852 -957 0
-852 -962 0
-852 -967 0
-852 -972 0
-852 -977 0
-852 -982 0
-852 -987 0
-852 -992 0
-852 -997 0
-852 -1002 0
-852 -1007 0
-852 -1012 0
-852 -1017 0
-852 -1022 0
-852 -1027 0
-852 -1032 0
-852 -1037 0
-852 -1042 0
-852 -1047 0
-852 -1052 0
-852 -1057 0
-852 -1062 0
-852 -1067 0
-852 -1072 0
-857 -862 0
-857 -867 0
-857 -872 0
-857 -877 0
-857 -882 0
-857 -887 0
-857 -892 0
-857 -897 0
-857 -902 0
-857 -907 0
-857 -912 0
-857 -917 0
-857 -922 0
-857 -927 0
-857 -932 0
-857 -937 0
-857 -942 0
-857 -947 0
-857 -952 0
-857 -957 0
-857 -962 0
-857 -967 0
-857 -972 0
-857 -977 0
-857 -982 0
-857 -987 0
-857 -992 0
-857 -997 0
-857 -1002 0
-857 -1007 0
-857 -1012 0
-857 -1017 0
-857 -1022 0
-857 -1027 0
-857 -1032 0
-857 -1037 0
-857 -1042 0
-857 -1047 0
-857 -1052 0
-857 -1057 0
-857 -1062 0
-857 -1067 0
-857 -1072 0
-862 -867 0
-862 -872 0
-862 -877 0
-862 -882 0
-862 -887 0
-862 -892 0
-862 -897 0
-862 -902 0
-862 -907 0
-862 -912 0
-862 -917 0
-862 -922 0
-862 -927 0
-862 -932 0
-862 -937 0
-862 -942 0
-862 -947 0
-862 -952 0
-862 -957 0
-862 -962 0
-862 -967 0
-862 -972 0
-862 -977 0
-862 -982 0
-862 -987 0
-862 -992 0
-862 -997 0
-862 -1002 0
-862 -1007 0
-862 -1012 0
-862 -1017 0
-862 -1022 0
-862 -1027 0
-862 -1032 0
-862 -1037 0
-862 -1042 0
-862 -1047 0
-862 -1052 0
-862 -1057 0
-862 -1062 0
-862 -1067 0
-862 -1072 0
-867 -872 0
-867 -877 0
-867 -882 0
-867 -887 0
-867 -892 0
-867 -897 0
-867 -902 0
-867 -907 0
-867 -912 0
-867 -917 0
-867 -922 0
-867 -927 0
-867 -932 0
-867 -937 0
-867 -942 0
-867 -947 0
-867 -952 0
-867 -957 0
-867 -962 0
-867 -967 0
-867 -972 0
-867 -977 0
-867 -982 0
-867 -987 0
-867 -992 0
-867 -997 0
-867 -1002 0
-867 -1007 0
-867 -1012 0
-867 -1017 0
-867 -1022 0
-867 -1027 0
-867 -1032 0
-867 -1037 0
-867 -1042 0
-867 -1047 0
-867 -1052 0
-867 -1057 0
-867 -1062 0
-867 -1067 0
-867 -1072 0
-872 -877 0
-872 -882 0
-872 -887 0
-872 -892 0
-872 -897 0
-872 -902 0
-872 -907 0
-872 -912 0
-872 -917 0
-872 -922 0
-872 -927 0
-872 -932 0
-872 -937 0
-872 -942 0
-872 -947 0
-872 -952 0
-872 -957 0
-872 -962 0
-872 -967 0
-872 -972 0
-872 -977 0
-872 -982 0
-872 -987 0
-872 -992 0
-872 -997 0
-872 -1002 0
-872 -1007 0
-872 -1012 0
-872 -1017 0
-872 -1022 0
-872 -1027 0
-872 -1032 0
-872 -1037 0
-872 -1042 0
-872 -1047 0
-872 -1052 0
-872 -1057 0
-872 -1062 0
-872 -1067 0
-872 -1072 0
-877 -882 0
-877 -887 0
-877 -892 0
-877 -897 0
-877 -902 0
-877 -907 0
-877 -912 0
-877 -917 0
-877 -922 0
-877 -927 0
-877 -932 0
-877 -937 0
-877 -942 0
-877 -947 0
-877 -952 0
-877 -957 0
-877 -962 0
-877 -967 0
-877 -972 0
-877 -977 0
-877 -982 0
-877 -987 0
-877 -992 0
-877 -997 0
-877 -1002 0
-877 -1007 0
-877 -1012 0
-877 -1017 0
-877 -1022 0
-877 -1027 0
-877 -1032 0
-877 -1037 0
-877 -1042 0
-877 -1047 0
-877 -1052 0
-877 -1057 0
-877 -1062 0
-877 -1067 0
-877 -1072 0
-882 -887 0
-882 -892 0
-882 -897 0
-882 -902 0
-882 -907 0
-882 -912 0
-882 -917 0
-882 -922 0
-882 -927 0
-882 -932 0
-882 -937 0
-882 -942 0
-882 -947 0
-882 -952 0
-882 -957 0
-882 -962 0
-882 -967 0
-882 -972 0
-882 -977 0
-882 -982 0
-882 -987 0
-882 -992 0
-882 -997 0
-882 -1002 0
-882 -1007 0
-882 -1012 0
-882 -1017 0
-882 -1022 0
-882 -1027 0
-882 -1032 0
-882 -1037 0
-882 -1042 0
-882 -1047 0
-882 -1052 0
-882 -1057 0
-882 -1062 0
-882 -1067 0
-882 -1072 0
-887 -892 0
-887 -897 0
-887 -902 0
-887 -907 0
-887 -912 0
-887 -917 0
-887 -922 0
-887 -927 0
-887 -932 0
-887 -937 0
-887 -942 0
-887 -947 0
-887 -952 0
-887 -957 0
-887 -962 0
-887 -967 0
-887 -972 0
-887 -977 0
-887 -982 0
-887 -987 0
-887 -992 0
-887 -997 0
-887 -1002 0
-887 -1007 0
-887 -1012 0
-887 -1017 0
-887 -1022 0
-887 -1027 0
-887 -1032 0
-887 -1037 0
-887 -1042 0
-887 -1047 0
-887 -1052 0
-887 -1057 0
-887 -1062 0
-887 -1067 0
-887 -1072 0
-892 -897 0
-892 -902 0
-892 -907 0
-892 -912 0
-892 -917 0
-892 -922 0
-892 -927 0
-892 -932 0
-892 -937 0
-892 -942 0
-892 -947 0
-892 -952 0
-892 -957 0
-892 -962 0
-892 -967 0
-892 -972 0
-892 -977 0
-892 -982 0
-892 -987 0
-892 -992 0
-892 -997 0
-892 -1002 0
-892 -1007 0
-892 -1012 0
-892 -1017 0
-892 -1022 0
-892 -1027 0
-892 -1032 0
-892 -1037 0
-892 -1042 0
-892 -1047 0
-892 -1052 0
-892 -1057 0
-892 -1062 0
-892 -1067 0
-892 -1072 0
-897 -902 0
-897 -907 0
-897 -912 0
-897 -917 0
-897 -922 0
-897 -927 0
-897 -932 0
-897 -937 0
-897 -942 0
-897 -947 0
-897 -952 0
-897 -957 0
-897 -962 0
-897 -967 0
-897 -972 0
-897 -977 0
-897 -982 0
-897 -987 0
-897 -992 0
-897 -997 0
-897 -1002 0
-897 -1007 0
-897 -1012 0
-897 -1017 0
-897 -1022 0
-897 -1027 0
-897 -1032 0
-897 -1037 0
-897 -1042 0
-897 -1047 0
-897 -1052 0
-897 -1057 0
-897 -1062 0
-897 -1067 0
-897 -1072 0
-902 -907 0
-902 -912 0
-902 -917 0
-902 -922 0
-902 -927 0
-902 -932 0
-902 -937 0
-902 -942 0
-902 -947 0
-902 -952 0
-902 -957 0
-902 -962 0
-902 -967 0
-902 -972 0
-902 -977 0
-902 -982 0
-902 -987 0
-902 -992 0
-902 -997 0
-902 -1002 0
-902 -1007 0
-902 -1012 0
-902 -1017 0
-902 -1022 0
-902 -1027 0
-902 -1032 0
-902 -1037 0
-902 -1042 0
-902 -1047 0
-902 -1052 0
-902 -1057 0
-902 -1062 0
-902 -1067 0
-902 -1072 0
-907 -912 0
-907 -917 0
-907 -922 0
-907 -927 0
-907 -932 0
-907 -937 0
-907 -942 0
-907 -947 0
-907 -952 0
-907 -957 0
-907 -962 0
-907 -967 0
-907 -972 0
-907 -977 0
-907 -982 0
-907 -987 0
-907 -992 0
-907 -997 0
-907 -1002 0
-907 -1007 0
-907 -1012 0
-907 -1017 0
-907 -1022 0
-907 -1027 0
-907 -1032 0
-907 -1037 0
-907 -1042 0
-907 -1047 0
-907 -1052 0
-907 -1057 0
-907 -1062 0
-907 -1067 0
-907 -1072 0
-912 -917 0
-912 -922 0
-912 -927 0
-912 -932 0
-912 -937 0
-912 -942 0
-912 -947 0
-912 -952 0
-912 -957 0
-912 -962 0
-912 -967 0
-912 -972 0
-912 -977 0
-912 -982 0
-912 -987 0
-912 -992 0
-912 -997 0
-912 -1002 0
-912 -1007 0
-912 -1012 0
-912 -1017 0
-912 -1022 0
-912 -1027 0
-912 -1032 0
-912 -1037 0
-912 -1042 0
-912 -1047 0
-912 -1052 0
-912 -1057 0
-912 -1062 0
-912 -1067 0
-912 -1072 0
-917 -922 0
-917 -927 0
-917 -932 0
-917 -937 0
-917 -942 0
-917 -947 0
-917 -952 0
-917 -957 0
-917 -962 0
-917 -967 0
-917 -972 0
-917 -977 0
-917 -982 0
-917 -987 0
-917 -992 0
-917 -997 0
-917 -1002 0
-917 -1007 0
-917 -1012 0
-917 -1017 0
-917 -1022 0
-917 -1027 0
-917 -1032 0
-917 -1037 0
-917 -1042 0
-917 -1047 0
-917 -1052 0
-917 -1057 0
-917 -1062 0
-917 -1067 0
-917 -1072 0
-922 -927 0
-922 -932 0
-922 -937 0
-922 -942 0
-922 -947 0
-922 -952 0
-922 -957 0
-922 -962 0
-922 -967 0
-922 -972 0
-922 -977 0
-922 -982 0
-922 -987 0
-922 -992 0
-922 -997 0
-922 -1002 0
-922 -1007 0
-922 -1012 0
-922 -1017 0
-922 -1022 0
-922 -1027 0
-922 -1032 0
-922 -1037 0
-922 -1042 0
-922 -1047 0
-922 -1052 0
-922 -1057 0
-922 -1062 0
-922 -1067 0
-922 -1072 0
-927 -932 0
-927 -937 0
-927 -942 0
-927 -947 0
-927 -952 0
-927 -957 0
-927 -962 0
-927 -967 0
-927 -972 0
-927 -977 0
-927 -982 0
-927 -987 0
-927 -992 0
-927 -997 0
-927 -1002 0
-927 -1007 0
-927 -1012 0
-927 -1017 0
-927 -1022 0
-927 -1027 0
-927 -1032 0
-927 -1037 0
-927 -1042 0
-927 -1047 0
-927 -1052 0
-927 -1057 0
-927 -1062 0
-927 -1067 0
-927 -1072 0
-932 -937 0
-932 -942 0
-932 -947 0
-932 -952 0
-932 -957 0
-932 -962 0
-932 -967 0
-932 -972 0
-932 -977 0
-932 -982 0
-932 -987 0
-932 -992 0
-932 -997 0
-932 -1002 0
-932 -1007 0
-932 -1012 0
-932 -1017 0
-932 -1022 0
-932 -1027 0
-932 -1032 0
-932 -1037 0
-932 -1042 0
-932 -1047 0
-932 -1052 0
-932 -1057 0
-932 -1062 0
-932 -1067 0
-932 -1072 0
-937 -942 0
-937 -947 0
-937 -952 0
-937 -957 0
-937 -962 0
-937 -967 0
-937 -972 0
-937 -977 0
-937 -982 0
-937 -987 0
-937 -992 0
-937 -997 0
-937 -1002 0
-937 -1007 0
-937 -1012 0
-937 -1017 0
-937 -1022 0
-937 -1027 0
-937 -1032 0
-937 -1037 0
-937 -1042 0
-937 -1047 0
-937 -1052 0
-937 -1057 0
-937 -1062 0
-937 -1067 0
-937 -1072 0
-942 -947 0
-942 -952 0
-942 -957 0
-942 -962 0
-942 -967 0
-942 -972 0
-942 -977 0
-942 -982 0
-942 -987 0
-942 -992 0
-942 -997 0
-942 -1002 0
-942 -1007 0
-942 -1012 0
-942 -1017 0
-942 -1022 0
-942 -1027 0
-942 -1032 0
-942 -1037 0
-942 -1042 0
-942 -1047 0
-942 -1052 0
-942 -1057 0
-942 -1062 0
-942 -1067 0
-942 -1072 0
-947 -952 0
-947 -957 0
-947 -962 0
-947 -967 0
-947 -972 0
-947 -977 0
-947 -982 0
-947 -987 0
-947 -992 0
-947 -997 0
-947 -1002 0
-947 -1007 0
-947 -1012 0
-947 -1017 0
-947 -1022 0
-947 -1027 0
-947 -1032 0
-947 -1037 0
-947 -1042 0
-947 -1047 0
-947 -1052 0
-947 -1057 0
-947 -1062 0
-947 -1067 0
-947 -1072 0
-952 -957 0
-952 -962 0
-952 -967 0
-952 -972 0
-952 -977 0
-952 -982 0
-952 -987 0
-952 -992 0
-952 -997 0
-952 -1002 0
-952 -1007 0
-952 -1012 0
-952 -1017 0
-952 -1022 0
-952 -1027 0
-952 -1032 0
-952 -1037 0
-952 -1042 0
-952 -1047 0
-952 -1052 0
-952 -1057 0
-952 -1062 0
-952 -1067 0
-952 -1072 0
-957 -962 0
-957 -967 0
-957 -972 0
-957 -977 0
-957 -982 0
-957 -987 0
-957 -992 0
-957 -997 0
-957 -1002 0
-957 -1007 0
-957 -1012 0
-957 -1017 0
-957 -1022 0
-957 -1027 0
-957 -1032 0
-957 -1037 0
-957 -1042 0
-957 -1047 0
-957 -1052 0
-957 -1057 0
-957 -1062 0
-957 -1067 0
-957 -1072 0
-962 -967 0
-962 -972 0
-962 -977 0
-962 -982 0
-962 -987 0
-962 -992 0
-962 -997 0
-962 -1002 0
-962 -1007 0
-962 -1012 0
-962 -1017 0
-962 -1022 0
-962 -1027 0
-962 -1032 0
-962 -1037 0
-962 -1042 0
-962 -1047 0
-962 -1052 0
-962 -1057 0
-962 -1062 0
-962 -1067 0
-962 -1072 0
-967 -972 0
-967 -977 0
-967 -982 0
-967 -987 0
-967 -992 0
-967 -997 0
-967 -1002 0
-967 -1007 0
-967 -1012 0
-967 -1017 0
-967 -1022 0
-967 -1027 0
-967 -1032 0
-967 -1037 0
-967 -1042 0
-967 -1047 0
-967 -1052 0
-967 -1057 0
-967 -1062 0
-967 -1067 0
-967 -1072 0
-972 -977 0
-972 -982 0
-972 -987 0
-972 -992 0
-972 -997 0
-972 -1002 0
-972 -1007 0
-972 -1012 0
-972 -1017 0
-972 -1022 0
-972 -1027 0
-972 -1032 0
-972 -1037 0
-972 -1042 0
-972 -1047 0
-972 -1052 0
-972 -1057 0
-972 -1062 0
-972 -1067 0
-972 -1072 0
-977 -982 0
-977 -987 0
-977 -992 0
-977 -997 0
-977 -1002 0
-977 -1007 0
-977 -1012 0
-977 -1017 0
-977 -1022 0
-977 -1027 0
-977 -1032 0
-977 -1037 0
-977 -1042 0
-977 -1047 0
-977 -1052 0
-977 -1057 0
-977 -1062 0
-977 -1067 0
-977 -1072 0
-982 -987 0
-982 -992 0
-982 -997 0
-982 -1002 0
-982 -1007 0
-982 -1012 0
-982 -1017 0
-982 -1022 0
-982 -1027 0
-982 -1032 0
-982 -1037 0
-982 -1042 0
-982 -1047 0
-982 -1052 0
-982 -1057 0
-982 -1062 0
-982 -1067 0
-982 -1072 0
-987 -992 0
-987 -997 0
-987 -1002 0
-987 -1007 0
-987 -1012 0
-987 -1017 0
-987 -1022 0
-987 -1027 0
-987 -1032 0
-987 -1037 0
-987 -1042 0
-987 -1047 0
-987 -1052 0
-987 -1057 0
-987 -1062 0
-987 -1067 0
-987 -1072 0
-992 -997 0
-992 -1002 0
-992 -1007 0
-992 -1012 0
-992 -1017 0
-992 -1022 0
-992 -1027 0
-992 -1032 0
-992 -1037 0
-992 -1042 0
-992 -1047 0
-992 -1052 0
-992 -1057 0
-992 -1062 0
-992 -1067 0
-992 -1072 0
-997 -1002 0
-997 -1007 0
-997 -1012 0
-997 -1017 0
-997 -1022 0
-997 -1027 0
-997 -1032 0
-997 -1037 0
-997 -1042 0
-997 -1047 0
-997 -1052 0
-997 -1057 0
-997 -1062 0
-997 -1067 0
-997 -1072 0
-1002 -1007 0
-1002 -1012 0
-1002 -1017 0
-1002 -1022 0
-1002 -1027 0
-1002 -1032 0
-1002 -1037 0
-1002 -1042 0
-1002 -1047 0
-1002 -1052 0
-1002 -1057 0
-1002 -1062 0
-1002 -1067 0
-1002 -1072 0
-1007 -1012 0
-1007 -1017 0
-1007 -1022 0
-1007 -1027 0
-1007 -1032 0
-1007 -1037 0
-1007 -1042 0
-1007 -1047 0
-1007 -1052 0
-1007 -1057 0
-1007 -1062 0
-1007 -1067 0
-1007 -1072 0
-1012 -1017 0
-1012 -1022 0
-1012 -1027 0
-1012 -1032 0
-1012 -1037 0
-1012 -1042 0
-1012 -1047 0
-1012 -1052 0
-1012 -1057 0
-1012 -1062 0
-1012 -1067 0
-1012 -1072 0
-1017 -1022 0
-1017 -1027 0
-1017 -1032 0
-1017 -1037 0
-1017 -1042 0
-1017 -1047 0
-1017 -1052 0
-1017 -1057 0
-1017 -1062 0
-1017 -1067 0
-1017 -1072 0
-1022 -1027 0
-1022 -1032 0
-1022 -1037 0
-1022 -1042 0
-1022 -1047 0
-1022 -1052 0
-1022 -1057 0
-1022 -1062 0
-1022 -1067 0
-1022 -1072 0
-1027 -1032 0
-1027 -1037 0
-1027 -1042 0
-1027 -1047 0
-1027 -1052 0
-1027 -1057 0
-1027 -1062 0
-1027 -1067 0
-1027 -1072 0
-1032 -1037 0
-1032 -1042 0
-1032 -1047 0
-1032 -1052 0
-1032 -1057 0
-1032 -1062 0
-1032 -1067 0
-1032 -1072 0
-1037 -1042 0
-1037 -1047 0
-1037 -1052 0
-1037 -1057 0
-1037 -1062 0
-1037 -1067 0
-1037 -1072 0
-1042 -1047 0
-1042 -1052 0
-1042 -1057 0
-1042 -1062 0
-1042 -1067 0
-1042 -1072 0
-1047 -1052 0
-1047 -1057 0
-1047 -1062 0
-1047 -1067 0
-1047 -1072 0
-1052 -1057 0
-1052 -1062 0
-1052 -1067 0
-1052 -1072 0
-1057 -1062 0
-1057 -1067 0
-1057 -1072 0
-1062 -1067 0
-1062 -1072 0
-1067 -1072 0
-657 201 0
-657 -159 0
-657 -147 4 0
-657 -147 136 0
-657 -147 -45 0
-657 -147 -51 0
-657 -147 -57 0
-657 -147 -63 0
-657 -147 -69 0
-657 -147 -39 -153 0
-657 -147 -75 -171 0
-657 -147 -105 -189 0
-657 -147 333 441 549 0
-657 -153 4 0
-657 -153 142 0
-657 -153 -45 0
-657 -153 -51 0
-657 -153 -57 0
-657 -153 -63 0
-657 -153 -69 0
-657 -153 -39 -159 0
-657 -153 -75 -177 0
-657 -153 -105 -195 0
-657 -153 339 447 555 0
-657 -3 -147 -135 0
-657 -3 -153 -141 0
-662 201 0
-662 -159 0
-662 -147 10 0
-662 -147 136 0
-662 -147 -39 0
-662 -147 -51 0
-662 -147 -57 0
-662 -147 -63 0
-662 -147 -69 0
-662 -147 -45 -153 0
-662 -147 -75 -171 0
-662 -147 -81 -171 0
-662 -147 -105 -189 0
-662 -147 -111 -189 0
-662 -147 351 459 567 0
-662 -153 10 0
-662 -153 142 0
-662 -153 -39 0
-662 -153 -51 0
-662 -153 -57 0
-662 -153 -63 0
-662 -153 -69 0
-662 -153 -45 -159 0
-662 -153 -75 -177 0
-662 -153 -81 -177 0
-662 -153 -105 -195 0
-662 -153 -111 -195 0
-662 -153 357 465 573 0
-662 -9 -147 -135 0
-662 -9 -153 -141 0
-667 201 0
-667 -159 0
-667 -147 16 0
-667 -147 136 0
-667 -147 -39 0
-667 -147 -45 0
-667 -147 -57 0
-667 -147 -63 0
-667 -147 -69 0
-667 -147 -51 -153 0
-667 -147 -81 -171 0
-667 -147 -87 -171 0
-667 -147 -105 -189 0
-667 -147 -111 -189 0
-667 -147 -117 -189 0
-667 -147 369 477 585 0
-667 -153 16 0
-667 -153 142 0
-667 -153 -39 0
-667 -153 -45 0
-667 -153 -57 0
-667 -153 -63 0
-667 -153 -69 0
-667 -153 -51 -159 0
-667 -153 -81 -177 0
-667 -153 -87 -177 0
-667 -153 -105 -195 0
-667 -153 -111 -195 0
-667 -153 -117 -195 0
-667 -153 375 483 591 0
-667 -15 -147 -135 0
-667 -15 -153 -141 0
-672 201 0
-672 -159 0
-672 -147 22 0
-672 -147 136 0
-672 -147 -39 0
-672 -147 -45 0
-672 -147 -51 0
-672 -147 -63 0
-672 -147 -69 0
-672 -147 -57 -153 0
-672 -147 -87 -171 0
-672 -147 -93 -171 0
-672 -147 -111 -189 0
-672 -147 -117 -189 0
-672 -147 -123 -189 0
-672 -147 387 495 603 0
-672 -153 22 0
-672 -153 142 0
-672 -153 -39 0
-672 -153 -45 0
-672 -153 -51 0
-672 -153 -63 0
-672 -153 -69 0
-672 -153 -57 -159 0
-672 -153 -87 -177 0
-672 -153 -93 -177 0
-672 -153 -111 -195 0
-672 -153 -117 -195 0
-672 -153 -123 -195 0
-672 -153 393 501 609 0
-672 -21 -147 -135 0
-672 -21 -153 -141 0
-677 201 0
-677 -159 0
-677 -147 28 0
-677 -147 136 0
-677 -147 -39 0
-677 -147 -45 0
-677 -147 -51 0
-677 -147 -57 0
-677 -147 -69 0
-677 -147 -63 -153 0
-677 -147 -93 -171 0
-677 -147 -99 -171 0
-677 -147 -117 -189 0
-677 -147 -123 -189 0
-677 -147 405 513 621 0
-677 -153 28 0
-677 -153 142 0
-677 -153 -39 0
-677 -153 -45 0
-677 -153 -51 0
-677 -153 -57 0
-677 -153 -69 0
-677 -153 -63 -159 0
-677 -153 -93 -177 0
-677 -153 -99 -177 0
-677 -153 -117 -195 0
-677 -153 -123 -195 0
-677 -153 411 519 627 0
-677 -27 -147 -135 0
-677 -27 -153 -141 0
-682 201 0
-682 -159 0
-682 -147 34 0
-682 -147 136 0
-682 -147 -39 0
-682 -147 -45 0
-682 -147 -51 0
-682 -147 -57 0
-682 -147 -63 0
-682 -147 -69 -153 0
-682 -147 -99 -171 0
-682 -147 -123 -189 0
-682 -147 423 531 639 0
-682 -153 34 0
-682 -153 142 0
-682 -153 -39 0
-682 -153 -45 0
-682 -153 -51 0
-682 -153 -57 0
-682 -153 -63 0
-682 -153 -69 -159 0
-682 -153 -99 -177 0
-682 -153 -123 -195 0
-682 -153 429 537 645 0
-682 -33 -147 -135 0
-682 -33 -153 -141 0
-687 201 0
-687 -177 0
-687 -165 4 0
-687 -165 136 0
-687 -165 -81 0
-687 -165 -87 0
-687 -165 -93 0
-687 -165 -99 0
-687 -165 -39 -153 0
-687 -165 -75 -171 0
-687 -165 -105 -189 0
-687 -165 333 441 549 0
-687 -171 4 0
-687 -171 142 0
-687 -171 -81 0
-687 -171 -87 0
-687 -171 -93 0
-687 -171 -99 0
-687 -171 -39 -159 0
-687 -171 -75 -177 0
-687 -171 -105 -195 0
-687 -171 339 447 555 0
-687 -3 -165 -135 0
-687 -3 -171 -141 0
-692 201 0
-692 -177 0
-692 -165 10 0
-692 -165 136 0
-692 -165 -87 0
-692 -165 -93 0
-692 -165 -99 0
-692 -165 -45 -153 0
-692 -165 -75 -171 0
-692 -165 -81 -171 0
-692 -165 -105 -189 0
-692 -165 -111 -189 0
-692 -165 351 459 567 0
-692 -171 10 0
-692 -171 142 0
-692 -171 -87 0
-692 -171 -93 0
-692 -171 -99 0
-692 -171 -45 -159 0
-692 -171 -75 -177 0
-692 -171 -81 -177 0
-692 -171 -105 -195 0
-692 -171 -111 -195 0
-692 -171 357 465 573 0
-692 -9 -165 -135 0
-692 -9 -171 -141 0
-697 201 0
-697 -177 0
-697 -165 16 0
-697 -165 136 0
-697 -165 -75 0
-697 -165 -93 0
-697 -165 -99 0
-697 -165 -51 -153 0
-697 -165 -81 -171 0
-697 -165 -87 -171 0
-697 -165 -105 -189 0
-697 -165 -111 -189 0
-697 -165 -117 -189 0
-697 -165 369 477 585 0
-697 -171 16 0
-697 -171 142 0
-697 -171 -75 0
-697 -171 -93 0
-697 -171 -99 0
-697 -171 -51 -159 0
-697 -171 -81 -177 0
-697 -171 -87 -177 0
-697 -171 -105 -195 0
-697 -171 -111 -195 0
-697 -171 -117 -195 0
-697 -171 375 483 591 0
-697 -15 -165 -135 0
-697 -15 -171 -141 0
-702 201 0
-702 -177 0
-702 -165 22 0
-702 -165 136 0
-702 -165 -75 0
-702 -165 -81 0
-702 -165 -99 0
-702 -165 -57 -153 0
-702 -165 -87 -171 0
-702 -165 -93 -171 0
-702 -165 -111 -189 0
-702 -165 -117 -189 0
-702 -165 -123 -189 0
-702 -165 387 495 603 0
-702 -171 22 0
-702 -171 142 0
-702 -171 -75 0
-702 -171 -81 0
-702 -171 -99 0
-702 -171 -57 -159 0
-702 -171 -87 -177 0
-702 -171 -93 -177 0
-702 -171 -111 -195 0
-702 -171 -117 -195 0
-702 -171 -123 -195 0
-702 -171 393 501 609 0
-702 -21 -165 -135 0
-702 -21 -171 -141 0
-707 201 0
-707 -177 0
-707 -165 28 0
-707 -165 136 0
-707 -165 -75 0
-707 -165 -81 0
-707 -165 -87 0
-707 -165 -63 -153 0
-707 -165 -93 -171 0
-707 -165 -99 -171 0
-707 -165 -117 -189 0
-707 -165 -123 -189 0
-707 -165 405 513 621 0
-707 -171 28 0
-707 -171 142 0
-707 -171 -75 0
-707 -171 -81 0
-707 -171 -87 0
-707 -171 -63 -159 0
-707 -171 -93 -177 0
-707 -171 -99 -177 0
-707 -171 -117 -195 0
-707 -171 -123 -195 0
-707 -171 411 519 627 0
-707 -27 -165 -135 0
-707 -27 -171 -141 0
-712 201 0
-712 -177 0
-712 -165 34 0
-712 -165 136 0
-712 -165 -75 0
-712 -165 -81 0
-712 -165 -87 0
-712 -165 -93 0
-712 -165 -69 -153 0
-712 -165 -99 -171 0
-712 -165 -123 -189 0
-712 -165 423 531 639 0
-712 -171 34 0
-712 -171 142 0
-712 -171 -75 0
-712 -171 -81 0
-712 -171 -87 0
-712 -171 -93 0
-712 -171 -69 -159 0
-712 -171 -99 -177 0
-712 -171 -123 -195 0
-712 -171 429 537 645 0
-712 -33 -165 -135 0
-712 -33 -171 -141 0
-717 201 0
-717 -195 0
-717 -183 4 0
-717 -183 136 0
-717 -183 -111 0
-717 -183 -117 0
-717 -183 -123 0
-717 -183 -39 -153 0
-717 -183 -75 -171 0
-717 -183 -105 -189 0
-717 -183 333 441 549 0
-717 -189 4 0
-717 -189 142 0
-717 -189 -111 0
-717 -189 -117 0
-717 -189 -123 0
-717 -189 -39 -159 0
-717 -189 -75 -177 0
-717 -189 -105 -195 0
-717 -189 339 447 555 0
-717 -3 -183 -135 0
-717 -3 -189 -141 0
-722 201 0
-722 -195 0
-722 -183 10 0
-722 -183 136 0
-722 -183 -117 0
-722 -183 -123 0
-722 -183 -45 -153 0
-722 -183 -75 -171 0
-722 -183 -81 -171 0
-722 -183 -105 -189 0
-722 -183 -111 -189 0
-722 -183 351 459 567 0
-722 -189 10 0
-722 -189 142 0
-722 -189 -117 0
-722 -189 -123 0
-722 -189 -45 -159 0
-722 -189 -75 -177 0
-722 -189 -81 -177 0
-722 -189 -105 -195 0
-722 -189 -111 -195 0
-722 -189 357 465 573 0
-722 -9 -183 -135 0
-722 -9 -189 -141 0
-727 201 0
-727 -195 0
-727 -183 16 0
-727 -183 136 0
-727 -183 -123 0
-727 -183 -51 -153 0
-727 -183 -81 -171 0
-727 -183 -87 -171 0
-727 -183 -105 -189 0
-727 -183 -111 -189 0
-727 -183 -117 -189 0
-727 -183 369 477 585 0
-727 -189 16 0
-727 -189 142 0
-727 -189 -123 0
-727 -189 -51 -159 0
-727 -189 -81 -177 0
-727 -189 -87 -177 0
-727 -189 -105 -195 0
-727 -189 -111 -195 0
-727 -189 -117 -195 0
-727 -189 375 483 591 0
-727 -15 -183 -135 0
-727 -15 -189 -141 0
-732 201 0
-732 -195 0
-732 -183 22 0
-732 -183 136 0
-732 -183 -105 0
-732 -183 -57 -153 0
-732 -183 -87 -171 0
-732 -183 -93 -171 0
-732 -183 -111 -189 0
-732 -183 -117 -189 0
-732 -183 -123 -189 0
-732 -183 387 495 603 0
-732 -189 22 0
-732 -189 142 0
-732 -189 -105 0
-732 -189 -57 -159 0
-732 -189 -87 -177 0
-732 -189 -93 -177 0
-732 -189 -111 -195 0
-732 -189 -117 -195 0
-732 -189 -123 -195 0
-732 -189 393 501 609 0
-732 -21 -183 -135 0
-732 -21 -189 -141 0
-737 201 0
-737 -195 0
-737 -183 28 0
-737 -183 136 0
-737 -183 -105 0
-737 -183 -111 0
-737 -183 -63 -153 0
-737 -183 -93 -171 0
-737 -183 -99 -171 0
-737 -183 -117 -189 0
-737 -183 -123 -189 0
-737 -183 405 513 621 0
-737 -189 28 0
-737 -189 142 0
-737 -189 -105 0
-737 -189 -111 0
-737 -189 -63 -159 0
-737 -189 -93 -177 0
-737 -189 -99 -177 0
-737 -189 -117 -195 0
-737 -189 -123 -195 0
-737 -189 411 519 627 0
-737 -27 -183 -135 0
-737 -27 -189 -141 0
-742 201 0
-742 -195 0
-742 -183 34 0
-742 -183 136 0
-742 -183 -105 0
-742 -183 -111 0
-742 -183 -117 0
-742 -183 -69 -153 0
-742 -183 -99 -171 0
-742 -183 -123 -189 0
-742 -183 423 531 639 0
-742 -189 34 0
-742 -189 142 0
-742 -189 -105 0
-742 -189 -111 0
-742 -189 -117 0
-742 -189 -69 -159 0
-742 -189 -99 -177 0
-742 -189 -123 -195 0
-742 -189 429 537 645 0
-742 -33 -183 -135 0
-742 -33 -189 -141 0
-747 201 0
-747 4 0
-747 130 0
-747 -3 -129 0
-747 -39 -147 0
-747 -75 -165 0
-747 -105 -183 0
-752 201 0
-752 10 0
-752 130 0
-752 -9 -129 0
-752 -45 -147 0
-752 -75 -165 0
-752 -81 -165 0
-752 -105 -183 0
-752 -111 -183 0
-757 201 0
-757 16 0
-757 130 0
-757 -15 -129 0
-757 -51 -147 0
-757 -81 -165 0
-757 -87 -165 0
-757 -105 -183 0
-757 -111 -183 0
-757 -117 -183 0
-762 201 0
-762 22 0
-762 130 0
-762 -21 -129 0
-762 -57 -147 0
-762 -87 -165 0
-762 -93 -165 0
-762 -111 -183 0
-762 -117 -183 0
-762 -123 -183 0
-767 201 0
-767 28 0
-767 130 0
-767 -27 -129 0
-767 -63 -147 0
-767 -93 -165 0
-767 -99 -165 0
-767 -117 -183 0
-767 -123 -183 0
-772 201 0
-772 34 0
-772 130 0
-772 -33 -129 0
-772 -69 -147 0
-772 -99 -165 0
-772 -123 -183 0
-777 207 0
-777 -141 0
-777 -129 40 0
-777 -129 154 0
-777 -129 -9 0
-777 -129 -15 0
-777 -129 -21 0
-777 -129 -27 0
-777 -129 -33 0
-777 -129 -3 -135 0
-777 -129 -75 -171 0
-777 -129 -105 -189 0
-777 -129 225 441 549 0
-777 -135 40 0
-777 -135 160 0
-777 -135 -9 0
-777 -135 -15 0
-777 -135 -21 0
-777 -135 -27 0
-777 -135 -33 0
-777 -135 -3 -141 0
-777 -135 -75 -177 0
-777 -135 -105 -195 0
-777 -135 231 447 555 0
-777 -39 -129 -153 0
-777 -39 -135 -159 0
-782 207 0
-782 -141 0
-782 -129 46 0
-782 -129 154 0
-782 -129 -3 0
-782 -129 -15 0
-782 -129 -21 0
-782 -129 -27 0
-782 -129 -33 0
-782 -129 -9 -135 0
-782 -129 -75 -171 0
-782 -129 -81 -171 0
-782 -129 -105 -189 0
-782 -129 -111 -189 0
-782 -129 243 459 567 0
-782 -135 46 0
-782 -135 160 0
-782 -135 -3 0
-782 -135 -15 0
-782 -135 -21 0
-782 -135 -27 0
-782 -135 -33 0
-782 -135 -9 -141 0
-782 -135 -75 -177 0
-782 -135 -81 -177 0
-782 -135 -105 -195 0
-782 -135 -111 -195 0
-782 -135 249 465 573 0
-782 -45 -129 -153 0
-782 -45 -135 -159 0
-787 207 0
-787 -141 0
-787 -129 52 0
-787 -129 154 0
-787 -129 -3 0
-787 -129 -9 0
-787 -129 -21 0
-787 -129 -27 0
-787 -129 -33 0
-787 -129 -15 -135 0
-787 -129 -81 -171 0
-787 -129 -87 -171 0
-787 -129 -105 -189 0
-787 -129 -111 -189 0
-787 -129 -117 -189 0
-787 -129 261 477 585 0
-787 -135 52 0
-787 -135 160 0
-787 -135 -3 0
-787 -135 -9 0
-787 -135 -21 0
-787 -135 -27 0
-787 -135 -33 0
-787 -135 -15 -141 0
-787 -135 -81 -177 0
-787 -135 -87 -177 0
-787 -135 -105 -195 0
-787 -135 -111 -195 0
-787 -135 -117 -195 0
-787 -135 267 483 591 0
-787 -51 -129 -153 0
-787 -51 -135 -159 0
-792 207 0
-792 -141 0
-792 -129 58 0
-792 -129 154 0
-792 -129 -3 0
-792 -129 -9 0
-792 -129 -15 0
-792 -129 -27 0
-792 -129 -33 0
-792 -129 -21 -135 0
-792 -129 -87 -171 0
-792 -129 -93 -171 0
-792 -129 -111 -189 0
-792 -129 -117 -189 0
-792 -129 -123 -189 0
-792 -129 279 495 603 0
-792 -135 58 0
-792 -135 160 0
-792 -135 -3 0
-792 -135 -9 0
-792 -135 -15 0
-792 -135 -27 0
-792 -135 -33 0
-792 -135 -21 -141 0
-792 -135 -87 -177 0
-792 -135 -93 -177 0
-792 -135 -111 -195 0
-792 -135 -117 -195 0
-792 -135 -123 -195 0
-792 -135 285 501 609 0
-792 -57 -129 -153 0
-792 -57 -135 -159 0
-797 207 0
-797 -141 0
-797 -129 64 0
-797 -129 154 0
-797 -129 -3 0
-797 -129 -9 0
-797 -129 -15 0
-797 -129 -21 0
-797 -129 -33 0
-797 -129 -27 -135 0
-797 -129 -93 -171 0
-797 -129 -99 -171 0
-797 -129 -117 -189 0
-797 -129 -123 -189 0
-797 -129 297 513 621 0
-797 -135 64 0
-797 -135 160 0
-797 -135 -3 0
-797 -135 -9 0
-797 -135 -15 0
-797 -135 -21 0
-797 -135 -33 0
-797 -135 -27 -141 0
-797 -135 -93 -177 0
-797 -135 -99 -177 0
-797 -135 -117 -195 0
-797 -135 -123 -195 0
-797 -135 303 519 627 0
-797 -63 -129 -153 0
-797 -63 -135 -159 0
-802 207 0
-802 -141 0
-802 -129 70 0
-802 -129 154 0
-802 -129 -3 0
-802 -129 -9 0
-802 -129 -15 0
-802 -129 -21 0
-802 -129 -27 0
-802 -129 -33 -135 0
-802 -129 -99 -171 0
-802 -129 -123 -189 0
-802 -129 315 531 639 0
-802 -135 70 0
-802 -135 160 0
-802 -135 -3 0
-802 -135 -9 0
-802 -135 -15 0
-802 -135 -21 0
-802 -135 -27 0
-802 -135 -33 -141 0
-802 -135 -99 -177 0
-802 -135 -123 -195 0
-802 -135 321 537 645 0
-802 -69 -129 -153 0
-802 -69 -135 -159 0
-807 207 0
-807 -177 0
-807 -165 40 0
-807 -165 154 0
-807 -165 -81 0
-807 -165 -87 0
-807 -165 -93 0
-807 -165 -99 0
-807 -165 -3 -135 0
-807 -165 -75 -171 0
-807 -165 -105 -189 0
-807 -165 225 441 549 0
-807 -171 40 0
-807 -171 160 0
-807 -171 -81 0
-807 -171 -87 0
-807 -171 -93 0
-807 -171 -99 0
-807 -171 -3 -141 0
-807 -171 -75 -177 0
-807 -171 -105 -195 0
-807 -171 231 447 555 0
-807 -39 -165 -153 0
-807 -39 -171 -159 0
-812 207 0
-812 -177 0
-812 -165 46 0
-812 -165 154 0
-812 -165 -87 0
-812 -165 -93 0
-812 -165 -99 0
-812 -165 -9 -135 0
-812 -165 -75 -171 0
-812 -165 -81 -171 0
-812 -165 -105 -189 0
-812 -165 -111 -189 0
-812 -165 243 459 567 0
-812 -171 46 0
-812 -171 160 0
-812 -171 -87 0
-812 -171 -93 0
-812 -171 -99 0
-812 -171 -9 -141 0
-812 -171 -75 -177 0
-812 -171 -81 -177 0
-812 -171 -105 -195 0
-812 -171 -111 -195 0
-812 -171 249 465 573 0
-812 -45 -165 -153 0
-812 -45 -171 -159 0
-817 207 0
-817 -177 0
-817 -165 52 0
-817 -165 154 0
-817 -165 -75 0
-817 -165 -93 0
-817 -165 -99 0
-817 -165 -15 -135 0
-817 -165 -81 -171 0
-817 -165 -87 -171 0
-817 -165 -105 -189 0
-817 -165 -111 -189 0
-817 -165 -117 -189 0
-817 -165 261 477 585 0
-817 -171 52 0
-817 -171 160 0
-817 -171 -75 0
-817 -171 -93 0
-817 -171 -99 0
-817 -171 -15 -141 0
-817 -171 -81 -177 0
-817 -171 -87 -177 0
-817 -171 -105 -195 0
-817 -171 -111 -195 0
-817 -171 -117 -195 0
-817 -171 267 483 591 0
-817 -51 -165 -153 0
-817 -51 -171 -159 0
-822 207 0
-822 -177 0
-822 -165 58 0
-822 -165 154 0
-822 -165 -75 0
-822 -165 -81 0
-822 -165 -99 0
-822 -165 -21 -135 0
-822 -165 -87 -171 0
-822 -165 -93 -171 0
-822 -165 -111 -189 0
-822 -165 -117 -189 0
-822 -165 -123 -189 0
-822 -165 279 495 603 0
-822 -171 58 0
-822 -171 160 0
-822 -171 -75 0
-822 -171 -81 0
-822 -171 -99 0
-822 -171 -21 -141 0
-822 -171 -87 -177 0
-822 -171 -93 -177 0
-822 -171 -111 -195 0
-822 -171 -117 -195 0
-822 -171 -123 -195 0
-822 -171 285 501 609 0
-822 -57 -165 -153 0
-822 -57 -171 -159 0
-827 207 0
-827 -177 0
-827 -165 64 0
-827 -165 154 0
-827 -165 -75 0
-827 -165 -81 0
-827 -165 -87 0
-827 -165 -27 -135 0
-827 -165 -93 -171 0
-827 -165 -99 -171 0
-827 -165 -117 -189 0
-827 -165 -123 -189 0
-827 -165 297 513 621 0
-827 -171 64 0
-827 -171 160 0
-827 -171 -75 0
-827 -171 -81 0
-827 -171 -87 0
-827 -171 -27 -141 0
-827 -171 -93 -177 0
-827 -171 -99 -177 0
-827 -171 -117 -195 0
-827 -171 -123 -195 0
-827 -171 303 519 627 0
-827 -63 -165 -153 0
-827 -63 -171 -159 0
-832 207 0
-832 -177 0
-832 -165 70 0
-832 -165 154 0
-832 -165 -75 0
-832 -165 -81 0
-832 -165 -87 0
-832 -165 -93 0
-832 -165 -33 -135 0
-832 -165 -99 -171 0
-832 -165 -123 -189 0
-832 -165 315 531 639 0
-832 -171 70 0
-832 -171 160 0
-832 -171 -75 0
-832 -171 -81 0
-832 -171 -87 0
-832 -171 -93 0
-832 -171 -33 -141 0
-832 -171 -99 -177 0
-832 -171 -123 -195 0
-832 -171 321 537 645 0
-832 -69 -165 -153 0
-832 -69 -171 -159 0
-837 207 0
-837 -195 0
-837 -183 40 0
-837 -183 154 0
-837 -183 -111 0
-837 -183 -117 0
-837 -183 -123 0
-837 -183 -3 -135 0
-837 -183 -75 -171 0
-837 -183 -105 -189 0
-837 -183 225 441 549 0
-837 -189 40 0
-837 -189 160 0
-837 -189 -111 0
-837 -189 -117 0
-837 -189 -123 0
-837 -189 -3 -141 0
-837 -189 -75 -177 0
-837 -189 -105 -195 0
-837 -189 231 447 555 0
-837 -39 -183 -153 0
-837 -39 -189 -159 0
-842 207 0
-842 -195 0
-842 -183 46 0
-842 -183 154 0
-842 -183 -117 0
-842 -183 -123 0
-842 -183 -9 -135 0
-842 -183 -75 -171 0
-842 -183 -81 -171 0
-842 -183 -105 -189 0
-842 -183 -111 -189 0
-842 -183 243 459 567 0
-842 -189 46 0
-842 -189 160 0
-842 -189 -117 0
-842 -189 -123 0
-842 -189 -9 -141 0
-842 -189 -75 -177 0
-842 -189 -81 -177 0
-842 -189 -105 -195 0
-842 -189 -111 -195 0
-842 -189 249 465 573 0
-842 -45 -183 -153 0
-842 -45 -189 -159 0
-847 207 0
-847 -195 0
-847 -183 52 0
-847 -183 154 0
-847 -183 -123 0
-847 -183 -15 -135 0
-847 -183 -81 -171 0
-847 -183 -87 -171 0
-847 -183 -105 -189 0
-847 -183 -111 -189 0
-847 -183 -117 -189 0
-847 -183 261 477 585 0
-847 -189 52 0
-847 -189 160 0
-847 -189 -123 0
-847 -189 -15 -141 0
-847 -189 -81 -177 0
-847 -189 -87 -177 0
-847 -189 -105 -195 0
-847 -189 -111 -195 0
-847 -189 -117 -195 0
-847 -189 267 483 591 0
-847 -51 -183 -153 0
-847 -51 -189 -159 0
-852 207 0
-852 -195 0
-852 -183 58 0
-852 -183 154 0
-852 -183 -105 0
-852 -183 -21 -135 0
-852 -183 -87 -171 0
-852 -183 -93 -171 0
-852 -183 -111 -189 0
-852 -183 -117 -189 0
-852 -183 -123 -189 0
-852 -183 279 495 603 0
-852 -189 58 0
-852 -189 160 0
-852 -189 -105 0
-852 -189 -21 -141 0
-852 -189 -87 -177 0
-852 -189 -93 -177 0
-852 -189 -111 -195 0
-852 -189 -117 -195 0
-852 -189 -123 -195 0
-852 -189 285 501 609 0
-852 -57 -183 -153 0
-852 -57 -189 -159 0
-857 207 0
-857 -195 0
-857 -183 64 0
-857 -183 154 0
-857 -183 -105 0
-857 -183 -111 0
-857 -183 -27 -135 0
-857 -183 -93 -171 0
-857 -183 -99 -171 0
-857 -183 -117 -189 0
-857 -183 -123 -189 0
-857 -183 297 513 621 0
-857 -189 64 0
-857 -189 160 0
-857 -189 -105 0
-857 -189 -111 0
-857 -189 -27 -141 0
-857 -189 -93 -177 0
-857 -189 -99 -177 0
-857 -189 -117 -195 0
-857 -189 -123 -195 0
-857 -189 303 519 627 0
-857 -63 -183 -153 0
-857 -63 -189 -159 0
-862 207 0
-862 -195 0
-862 -183 70 0
-862 -183 154 0
-862 -183 -105 0
-862 -183 -111 0
-862 -183 -117 0
-862 -183 -33 -135 0
-862 -183 -99 -171 0
-862 -183 -123 -189 0
-862 -183 315 531 639 0
-862 -189 70 0
-862 -189 160 0
-862 -189 -105 0
-862 -189 -111 0
-862 -189 -117 0
-862 -189 -33 -141 0
-862 -189 -99 -177 0
-862 -189 -123 -195 0
-862 -189 321 537 645 0
-862 -69 -183 -153 0
-862 -69 -189 -159 0
-867 207 0
-867 40 0
-867 148 0
-867 -39 -147 0
-867 -3 -129 0
-867 -75 -165 0
-867 -105 -183 0
-872 207 0
-872 46 0
-872 148 0
-872 -45 -147 0
-872 -9 -129 0
-872 -75 -165 0
-872 -81 -165 0
-872 -105 -183 0
-872 -111 -183 0
-877 207 0
-877 52 0
-877 148 0
-877 -51 -147 0
-877 -15 -129 0
-877 -81 -165 0
-877 -87 -165 0
-877 -105 -183 0
-877 -111 -183 0
-877 -117 -183 0
-882 207 0
-882 58 0
-882 148 0
-882 -57 -147 0
-882 -21 -129 0
-882 -87 -165 0
-882 -93 -165 0
-882 -111 -183 0
-882 -117 -183 0
-882 -123 -183 0
-887 207 0
-887 64 0
-887 148 0
-887 -63 -147 0
-887 -27 -129 0
-887 -93 -165 0
-887 -99 -165 0
-887 -117 -183 0
-887 -123 -183 0
-892 207 0
-892 70 0
-892 148 0
-892 -69 -147 0
-892 -33 -129 0
-892 -99 -165 0
-892 -123 -183 0
-897 213 0
-897 -141 0
-897 -129 76 0
-897 -129 172 0
-897 -129 -15 0
-897 -129 -21 0
-897 -129 -27 0
-897 -129 -33 0
-897 -129 -3 -135 0
-897 -129 -9 -135 0
-897 -129 -39 -153 0
-897 -129 -45 -153 0
-897 -129 -105 -189 0
-897 -129 -111 -189 0
-897 -129 225 333 549 243 351 567 0
-897 -135 76 0
-897 -135 178 0
-897 -135 -15 0
-897 -135 -21 0
-897 -135 -27 0
-897 -135 -33 0
-897 -135 -3 -141 0
-897 -135 -9 -141 0
-897 -135 -39 -159 0
-897 -135 -45 -159 0
-897 -135 -105 -195 0
-897 -135 -111 -195 0
-897 -135 231 339 555 249 357 573 0
-897 -75 -129 -171 0
-897 -75 -135 -177 0
-902 213 0
-902 -141 0
-902 -129 82 0
-902 -129 172 0
-902 -129 -3 0
-902 -129 -21 0
-902 -129 -27 0
-902 -129 -33 0
-902 -129 -9 -135 0
-902 -129 -15 -135 0
-902 -129 -45 -153 0
-902 -129 -51 -153 0
-902 -129 -105 -189 0
-902 -129 -111 -189 0
-902 -129 -117 -189 0
-902 -129 243 351 567 261 369 585 0
-902 -135 82 0
-902 -135 178 0
-902 -135 -3 0
-902 -135 -21 0
-902 -135 -27 0
-902 -135 -33 0
-902 -135 -9 -141 0
-902 -135 -15 -141 0
-902 -135 -45 -159 0
-902 -135 -51 -159 0
-902 -135 -105 -195 0
-902 -135 -111 -195 0
-902 -135 -117 -195 0
-902 -135 249 357 573 267 375 591 0
-902 -81 -129 -171 0
-902 -81 -135 -177 0
-907 213 0
-907 -141 0
-907 -129 88 0
-907 -129 172 0
-907 -129 -3 0
-907 -129 -9 0
-907 -129 -27 0
-907 -129 -33 0
-907 -129 -15 -135 0
-907 -129 -21 -135 0
-907 -129 -51 -153 0
-907 -129 -57 -153 0
-907 -129 -105 -189 0
-907 -129 -111 -189 0
-907 -129 -117 -189 0
-907 -129 -123 -189 0
-907 -129 261 369 585 279 387 603 0
-907 -135 88 0
-907 -135 178 0
-907 -135 -3 0
-907 -135 -9 0
-907 -135 -27 0
-907 -135 -33 0
-907 -135 -15 -141 0
-907 -135 -21 -141 0
-907 -135 -51 -159 0
-907 -135 -57 -159 0
-907 -135 -105 -195 0
-907 -135 -111 -195 0
-907 -135 -117 -195 0
-907 -135 -123 -195 0
-907 -135 267 375 591 285 393 609 0
-907 -87 -129 -171 0
-907 -87 -135 -177 0
-912 213 0
-912 -141 0
-912 -129 94 0
-912 -129 172 0
-912 -129 -3 0
-912 -129 -9 0
-912 -129 -15 0
-912 -129 -33 0
-912 -129 -21 -135 0
-912 -129 -27 -135 0
-912 -129 -57 -153 0
-912 -129 -63 -153 0
-912 -129 -111 -189 0
-912 -129 -117 -189 0
-912 -129 -123 -189 0
-912 -129 279 387 603 297 405 621 0
-912 -135 94 0
-912 -135 178 0
-912 -135 -3 0
-912 -135 -9 0
-912 -135 -15 0
-912 -135 -33 0
-912 -135 -21 -141 0
-912 -135 -27 -141 0
-912 -135 -57 -159 0
-912 -135 -63 -159 0
-912 -135 -111 -195 0
-912 -135 -117 -195 0
-912 -135 -123 -195 0
-912 -135 285 393 609 303 411 627 0
-912 -93 -129 -171 0
-912 -93 -135 -177 0
-917 213 0
-917 -141 0
-917 -129 100 0
-917 -129 172 0
-917 -129 -3 0
-917 -129 -9 0
-917 -129 -15 0
-917 -129 -21 0
-917 -129 -27 -135 0
-917 -129 -33 -135 0
-917 -129 -63 -153 0
-917 -129 -69 -153 0
-917 -129 -117 -189 0
-917 -129 -123 -189 0
-917 -129 297 405 621 315 423 639 0
-917 -135 100 0
-917 -135 178 0
-917 -135 -3 0
-917 -135 -9 0
-917 -135 -15 0
-917 -135 -21 0
-917 -135 -27 -141 0
-917 -135 -33 -141 0
-917 -135 -63 -159 0
-917 -135 -69 -159 0
-917 -135 -117 -195 0
-917 -135 -123 -195 0
-917 -135 303 411 627 321 429 645 0
-917 -99 -129 -171 0
-917 -99 -135 -177 0
-922 213 0
-922 -159 0
-922 -147 76 0
-922 -147 172 0
-922 -147 -51 0
-922 -147 -57 0
-922 -147 -63 0
-922 -147 -69 0
-922 -147 -3 -135 0
-922 -147 -9 -135 0
-922 -147 -39 -153 0
-922 -147 -45 -153 0
-922 -147 -105 -189 0
-922 -147 -111 -189 0
-922 -147 225 333 549 243 351 567 0
-922 -153 76 0
-922 -153 178 0
-922 -153 -51 0
-922 -153 -57 0
-922 -153 -63 0
-922 -153 -69 0
-922 -153 -3 -141 0
-922 -153 -9 -141 0
-922 -153 -39 -159 0
-922 -153 -45 -159 0
-922 -153 -105 -195 0
-922 -153 -111 -195 0
-922 -153 231 339 555 249 357 573 0
-922 -75 -147 -171 0
-922 -75 -153 -177 0
-927 213 0
-927 -159 0
-927 -147 82 0
-927 -147 172 0
-927 -147 -39 0
-927 -147 -57 0
-927 -147 -63 0
-927 -147 -69 0
-927 -147 -9 -135 0
-927 -147 -15 -135 0
-927 -147 -45 -153 0
-927 -147 -51 -153 0
-927 -147 -105 -189 0
-927 -147 -111 -189 0
-927 -147 -117 -189 0
-927 -147 243 351 567 261 369 585 0
-927 -153 82 0
-927 -153 178 0
-927 -153 -39 0
-927 -153 -57 0
-927 -153 -63 0
-927 -153 -69 0
-927 -153 -9 -141 0
-927 -153 -15 -141 0
-927 -153 -45 -159 0
-927 -153 -51 -159 0
-927 -153 -105 -195 0
-927 -153 -111 -195 0
-927 -153 -117 -195 0
-927 -153 249 357 573 267 375 591 0
-927 -81 -147 -171 0
-927 -81 -153 -177 0
-932 213 0
-932 -159 0
-932 -147 88 0
-932 -147 172 0
-932 -147 -39 0
-932 -147 -45 0
-932 -147 -63 0
-932 -147 -69 0
-932 -147 -15 -135 0
-932 -147 -21 -135 0
-932 -147 -51 -153 0
-932 -147 -57 -153 0
-932 -147 -105 -189 0
-932 -147 -111 -189 0
-932 -147 -117 -189 0
-932 -147 -123 -189 0
-932 -147 261 369 585 279 387 603 0
-932 -153 88 0
-932 -153 178 0
-932 -153 -39 0
-932 -153 -45 0
-932 -153 -63 0
-932 -153 -69 0
-932 -153 -15 -141 0
-932 -153 -21 -141 0
-932 -153 -51 -159 0
-932 -153 -57 -159 0
-932 -153 -105 -195 0
-932 -153 -111 -195 0
-932 -153 -117 -195 0
-932 -153 -123 -195 0
-932 -153 267 375 591 285 393 609 0
-932 -87 -147 -171 0
-932 -87 -153 -177 0
-937 213 0
-937 -159 0
-937 -147 94 0
-937 -147 172 0
-937 -147 -39 0
-937 -147 -45 0
-937 -147 -51 0
-937 -147 -69 0
-937 -147 -21 -135 0
-937 -147 -27 -135 0
-937 -147 -57 -153 0
-937 -147 -63 -153 0
-937 -147 -111 -189 0
-937 -147 -117 -189 0
-937 -147 -123 -189 0
-937 -147 279 387 603 297 405 621 0
-937 -153 94 0
-937 -153 178 0
-937 -153 -39 0
-937 -153 -45 0
-937 -153 -51 0
-937 -153 -69 0
-937 -153 -21 -141 0
-937 -153 -27 -141 0
-937 -153 -57 -159 0
-937 -153 -63 -159 0
-937 -153 -111 -195 0
-937 -153 -117 -195 0
-937 -153 -123 -195 0
-937 -153 285 393 609 303 411 627 0
-937 -93 -147 -171 0
-937 -93 -153 -177 0
-942 213 0
-942 -159 0
-942 -147 100 0
-942 -147 172 0
-942 -147 -39 0
-942 -147 -45 0
-942 -147 -51 0
-942 -147 -57 0
-942 -147 -27 -135 0
-942 -147 -33 -135 0
-942 -147 -63 -153 0
-942 -147 -69 -153 0
-942 -147 -117 -189 0
-942 -147 -123 -189 0
-942 -147 297 405 621 315 423 639 0
-942 -153 100 0
-942 -153 178 0
-942 -153 -39 0
-942 -153 -45 0
-942 -153 -51 0
-942 -153 -57 0
-942 -153 -27 -141 0
-942 -153 -33 -141 0
-942 -153 -63 -159 0
-942 -153 -69 -159 0
-942 -153 -117 -195 0
-942 -153 -123 -195 0
-942 -153 303 411 627 321 429 645 0
-942 -99 -147 -171 0
-942 -99 -153 -177 0
-947 213 0
-947 -195 0
-947 -183 76 0
-947 -183 172 0
-947 -183 -117 0
-947 -183 -123 0
-947 -183 -3 -135 0
-947 -183 -9 -135 0
-947 -183 -39 -153 0
-947 -183 -45 -153 0
-947 -183 -105 -189 0
-947 -183 -111 -189 0
-947 -183 225 333 549 243 351 567 0
-947 -189 76 0
-947 -189 178 0
-947 -189 -117 0
-947 -189 -123 0
-947 -189 -3 -141 0
-947 -189 -9 -141 0
-947 -189 -39 -159 0
-947 -189 -45 -159 0
-947 -189 -105 -195 0
-947 -189 -111 -195 0
-947 -189 231 339 555 249 357 573 0
-947 -75 -183 -171 0
-947 -75 -189 -177 0
-952 213 0
-952 -195 0
-952 -183 82 0
-952 -183 172 0
-952 -183 -123 0
-952 -183 -9 -135 0
-952 -183 -15 -135 0
-952 -183 -45 -153 0
-952 -183 -51 -153 0
-952 -183 -105 -189 0
-952 -183 -111 -189 0
-952 -183 -117 -189 0
-952 -183 243 351 567 261 369 585 0
-952 -189 82 0
-952 -189 178 0
-952 -189 -123 0
-952 -189 -9 -141 0
-952 -189 -15 -141 0
-952 -189 -45 -159 0
-952 -189 -51 -159 0
-952 -189 -105 -195 0
-952 -189 -111 -195 0
-952 -189 -117 -195 0
-952 -189 249 357 573 267 375 591 0
-952 -81 -183 -171 0
-952 -81 -189 -177 0
-957 213 0
-957 -195 0
-957 -183 88 0
-957 -183 172 0
-957 -183 -15 -135 0
-957 -183 -21 -135 0
-957 -183 -51 -153 0
-957 -183 -57 -153 0
-957 -183 -105 -189 0
-957 -183 -111 -189 0
-957 -183 -117 -189 0
-957 -183 -123 -189 0
-957 -183 261 369 585 279 387 603 0
-957 -189 88 0
-957 -189 178 0
-957 -189 -15 -141 0
-957 -189 -21 -141 0
-957 -189 -51 -159 0
-957 -189 -57 -159 0
-957 -189 -105 -195 0
-957 -189 -111 -195 0
-957 -189 -117 -195 0
-957 -189 -123 -195 0
-957 -189 267 375 591 285 393 609 0
-957 -87 -183 -171 0
-957 -87 -189 -177 0
-962 213 0
-962 -195 0
-962 -183 94 0
-962 -183 172 0
-962 -183 -105 0
-962 -183 -21 -135 0
-962 -183 -27 -135 0
-962 -183 -57 -153 0
-962 -183 -63 -153 0
-962 -183 -111 -189 0
-962 -183 -117 -189 0
-962 -183 -123 -189 0
-962 -183 279 387 603 297 405 621 0
-962 -189 94 0
-962 -189 178 0
-962 -189 -105 0
-962 -189 -21 -141 0
-962 -189 -27 -141 0
-962 -189 -57 -159 0
-962 -189 -63 -159 0
-962 -189 -111 -195 0
-962 -189 -117 -195 0
-962 -189 -123 -195 0
-962 -189 285 393 609 303 411 627 0
-962 -93 -183 -171 0
-962 -93 -189 -177 0
-967 213 0
-967 -195 0
-967 -183 100 0
-967 -183 172 0
-967 -183 -105 0
-967 -183 -111 0
-967 -183 -27 -135 0
-967 -183 -33 -135 0
-967 -183 -63 -153 0
-967 -183 -69 -153 0
-967 -183 -117 -189 0
-967 -183 -123 -189 0
-967 -183 297 405 621 315 423 639 0
-967 -189 100 0
-967 -189 178 0
-967 -189 -105 0
-967 -189 -111 0
-967 -189 -27 -141 0
-967 -189 -33 -141 0
-967 -189 -63 -159 0
-967 -189 -69 -159 0
-967 -189 -117 -195 0
-967 -189 -123 -195 0
-967 -189 303 411 627 321 429 645 0
-967 -99 -183 -171 0
-967 -99 -189 -177 0
-972 213 0
-972 76 0
-972 166 0
-972 -75 -165 0
-972 -3 -129 0
-972 -9 -129 0
-972 -39 -147 0
-972 -45 -147 0
-972 -105 -183 0
-972 -111 -183 0
-977 213 0
-977 82 0
-977 166 0
-977 -81 -165 0
-977 -9 -129 0
-977 -15 -129 0
-977 -45 -147 0
-977 -51 -147 0
-977 -105 -183 0
-977 -111 -183 0
-977 -117 -183 0
-982 213 0
-982 88 0
-982 166 0
-982 -87 -165 0
-982 -15 -129 0
-982 -21 -129 0
-982 -51 -147 0
-982 -57 -147 0
-982 -105 -183 0
-982 -111 -183 0
-982 -117 -183 0
-982 -123 -183 0
-987 213 0
-987 94 0
-987 166 0
-987 -93 -165 0
-987 -21 -129 0
-987 -27 -129 0
-987 -57 -147 0
-987 -63 -147 0
-987 -111 -183 0
-987 -117 -183 0
-987 -123 -183 0
-992 213 0
-992 100 0
-992 166 0
-992 -99 -165 0
-992 -27 -129 0
-992 -33 -129 0
-992 -63 -147 0
-992 -69 -147 0
-992 -117 -183 0
-992 -123 -183 0
-997 219 0
-997 -141 0
-997 -129 106 0
-997 -129 190 0
-997 -129 -21 0
-997 -129 -27 0
-997 -129 -33 0
-997 -129 -3 -135 0
-997 -129 -9 -135 0
-997 -129 -15 -135 0
-997 -129 -39 -153 0
-997 -129 -45 -153 0
-997 -129 -51 -153 0
-997 -129 -75 -171 0
-997 -129 -81 -171 0
-997 -129 -87 -171 0
-997 -129 225 333 441 243 351 459 0
-997 -129 225 333 441 261 369 477 0
-997 -129 243 351 459 261 369 477 0
-997 -135 106 0
-997 -135 196 0
-997 -135 -21 0
-997 -135 -27 0
-997 -135 -33 0
-997 -135 -3 -141 0
-997 -135 -9 -141 0
-997 -135 -15 -141 0
-997 -135 -39 -159 0
-997 -135 -45 -159 0
-997 -135 -51 -159 0
-997 -135 -75 -177 0
-997 -135 -81 -177 0
-997 -135 -87 -177 0
-997 -135 231 339 447 249 357 465 0
-997 -135 231 339 447 267 375 483 0
-997 -135 249 357 465 267 375 483 0
-997 -105 -129 -189 0
-997 -105 -135 -195 0
-1002 219 0
-1002 -141 0
-1002 -129 112 0
-1002 -129 190 0
-1002 -129 -3 0
-1002 -129 -27 0
-1002 -129 -33 0
-1002 -129 -9 -135 0
-1002 -129 -15 -135 0
-1002 -129 -21 -135 0
-1002 -129 -45 -153 0
-1002 -129 -51 -153 0
-1002 -129 -57 -153 0
-1002 -129 -75 -171 0
-1002 -129 -81 -171 0
-1002 -129 -87 -171 0
-1002 -129 -93 -171 0
-1002 -129 243 351 459 261 369 477 0
-1002 -129 243 351 459 279 387 495 0
-1002 -129 261 369 477 279 387 495 0
-1002 -135 112 0
-1002 -135 196 0
-1002 -135 -3 0
-1002 -135 -27 0
-1002 -135 -33 0
-1002 -135 -9 -141 0
-1002 -135 -15 -141 0
-1002 -135 -21 -141 0
-1002 -135 -45 -159 0
-1002 -135 -51 -159 0
-1002 -135 -57 -159 0
-1002 -135 -75 -177 0
-1002 -135 -81 -177 0
-1002 -135 -87 -177 0
-1002 -135 -93 -177 0
-1002 -135 249 357 465 267 375 483 0
-1002 -135 249 357 465 285 393 501 0
-1002 -135 267 375 483 285 393 501 0
-1002 -111 -129 -189 0
-1002 -111 -135 -195 0
-1007 219 0
-1007 -141 0
-1007 -129 118 0
-1007 -129 190 0
-1007 -129 -3 0
-1007 -129 -9 0
-1007 -129 -33 0
-1007 -129 -15 -135 0
-1007 -129 -21 -135 0
-1007 -129 -27 -135 0
-1007 -129 -51 -153 0
-1007 -129 -57 -153 0
-1007 -129 -63 -153 0
-1007 -129 -81 -171 0
-1007 -129 -87 -171 0
-1007 -129 -93 -171 0
-1007 -129 -99 -171 0
-1007 -129 261 369 477 279 387 495 0
-1007 -129 261 369 477 297 405 513 0
-1007 -129 279 387 495 297 405 513 0
-1007 -135 118 0
-1007 -135 196 0
-1007 -135 -3 0
-1007 -135 -9 0
-1007 -135 -33 0
-1007 -135 -15 -141 0
-1007 -135 -21 -141 0
-1007 -135 -27 -141 0
-1007 -135 -51 -159 0
-1007 -135 -57 -159 0
-1007 -135 -63 -159 0
-1007 -135 -81 -177 0
-1007 -135 -87 -177 0
-1007 -135 -93 -177 0
-1007 -135 -99 -177 0
-1007 -135 267 375 483 285 393 501 0
-1007 -135 267 375 483 303 411 519 0
-1007 -135 285 393 501 303 411 519 0
-1007 -117 -129 -189 0
-1007 -117 -135 -195 0
-1012 219 0
-1012 -141 0
-1012 -129 124 0
-1012 -129 190 0
-1012 -129 -3 0
-1012 -129 -9 0
-1012 -129 -15 0
-1012 -129 -21 -135 0
-1012 -129 -27 -135 0
-1012 -129 -33 -135 0
-1012 -129 -57 -153 0
-1012 -129 -63 -153 0
-1012 -129 -69 -153 0
-1012 -129 -87 -171 0
-1012 -129 -93 -171 0
-1012 -129 -99 -171 0
-1012 -129 279 387 495 297 405 513 0
-1012 -129 279 387 495 315 423 531 0
-1012 -129 297 405 513 315 423 531 0
-1012 -135 124 0
-1012 -135 196 0
-1012 -135 -3 0
-1012 -135 -9 0
-1012 -135 -15 0
-1012 -135 -21 -141 0
-1012 -135 -27 -141 0
-1012 -135 -33 -141 0
-1012 -135 -57 -159 0
-1012 -135 -63 -159 0
-1012 -135 -69 -159 0
-1012 -135 -87 -177 0
-1012 -135 -93 -177 0
-1012 -135 -99 -177 0
-1012 -135 285 393 501 303 411 519 0
-1012 -135 285 393 501 321 429 537 0
-1012 -135 303 411 519 321 429 537 0
-1012 -123 -129 -189 0
-1012 -123 -135 -195 0
-1017 219 0
-1017 -159 0
-1017 -147 106 0
-1017 -147 190 0
-1017 -147 -57 0
-1017 -147 -63 0
-1017 -147 -69 0
-1017 -147 -3 -135 0
-1017 -147 -9 -135 0
-1017 -147 -15 -135 0
-1017 -147 -39 -153 0
-1017 -147 -45 -153 0
-1017 -147 -51 -153 0
-1017 -147 -75 -171 0
-1017 -147 -81 -171 0
-1017 -147 -87 -171 0
-1017 -147 225 333 441 243 351 459 0
-1017 -147 225 333 441 261 369 477 0
-1017 -147 243 351 459 261 369 477 0
-1017 -153 106 0
-1017 -153 196 0
-1017 -153 -57 0
-1017 -153 -63 0
-1017 -153 -69 0
-1017 -153 -3 -141 0
-1017 -153 -9 -141 0
-1017 -153 -15 -141 0
-1017 -153 -39 -159 0
-1017 -153 -45 -159 0
-1017 -153 -51 -159 0
-1017 -153 -75 -177 0
-1017 -153 -81 -177 0
-1017 -153 -87 -177 0
-1017 -153 231 339 447 249 357 465 0
-1017 -153 231 339 447 267 375 483 0
-1017 -153 249 357 465 267 375 483 0
-1017 -105 -147 -189 0
-1017 -105 -153 -195 0
-1022 219 0
-1022 -159 0
-1022 -147 112 0
-1022 -147 190 0
-1022 -147 -39 0
-1022 -147 -63 0
-1022 -147 -69 0
-1022 -147 -9 -135 0
-1022 -147 -15 -135 0
-1022 -147 -21 -135 0
-1022 -147 -45 -153 0
-1022 -147 -51 -153 0
-1022 -147 -57 -153 0
-1022 -147 -75 -171 0
-1022 -147 -81 -171 0
-1022 -147 -87 -171 0
-1022 -147 -93 -171 0
-1022 -147 243 351 459 261 369 477 0
-1022 -147 243 351 459 279 387 495 0
-1022 -147 261 369 477 279 387 495 0
-1022 -153 112 0
-1022 -153 196 0
-1022 -153 -39 0
-1022 -153 -63 0
-1022 -153 -69 0
-1022 -153 -9 -141 0
-1022 -153 -15 -141 0
-1022 -153 -21 -141 0
-1022 -153 -45 -159 0
-1022 -153 -51 -159 0
-1022 -153 -57 -159 0
-1022 -153 -75 -177 0
-1022 -153 -81 -177 0
-1022 -153 -87 -177 0
-1022 -153 -93 -177 0
-1022 -153 249 357 465 267 375 483 0
-1022 -153 249 357 465 285 393 501 0
-1022 -153 267 375 483 285 393 501 0
-1022 -111 -147 -189 0
-1022 -111 -153 -195 0
-1027 219 0
-1027 -159 0
-1027 -147 118 0
-1027 -147 190 0
-1027 -147 -39 0
-1027 -147 -45 0
-1027 -147 -69 0
-1027 -147 -15 -135 0
-1027 -147 -21 -135 0
-1027 -147 -27 -135 0
-1027 -147 -51 -153 0
-1027 -147 -57 -153 0
-1027 -147 -63 -153 0
-1027 -147 -81 -171 0
-1027 -147 -87 -171 0
-1027 -147 -93 -171 0
-1027 -147 -99 -171 0
-1027 -147 261 369 477 279 387 495 0
-1027 -147 261 369 477 297 405 513 0
-1027 -147 279 387 495 297 405 513 0
-1027 -153 118 0
-1027 -153 196 0
-1027 -153 -39 0
-1027 -153 -45 0
-1027 -153 -69 0
-1027 -153 -15 -141 0
-1027 -153 -21 -141 0
-1027 -153 -27 -141 0
-1027 -153 -51 -159 0
-1027 -153 -57 -159 0
-1027 -153 -63 -159 0
-1027 -153 -81 -177 0
-1027 -153 -87 -177 0
-1027 -153 -93 -177 0
-1027 -153 -99 -177 0
-1027 -153 267 375 483 285 393 501 0
-1027 -153 267 375 483 303 411 519 0
-1027 -153 285 393 501 303 411 519 0
-1027 -117 -147 -189 0
-1027 -117 -153 -195 0
-1032 219 0
-1032 -159 0
-1032 -147 124 0
-1032 -147 190 0
-1032 -147 -39 0
-1032 -147 -45 0
-1032 -147 -51 0
-1032 -147 -21 -135 0
-1032 -147 -27 -135 0
-1032 -147 -33 -135 0
-1032 -147 -57 -153 0
-1032 -147 -63 -153 0
-1032 -147 -69 -153 0
-1032 -147 -87 -171 0
-1032 -147 -93 -171 0
-1032 -147 -99 -171 0
-1032 -147 279 387 495 297 405 513 0
-1032 -147 279 387 495 315 423 531 0
-1032 -147 297 405 513 315 423 531 0
-1032 -153 124 0
-1032 -153 196 0
-1032 -153 -39 0
-1032 -153 -45 0
-1032 -153 -51 0
-1032 -153 -21 -141 0
-1032 -153 -27 -141 0
-1032 -153 -33 -141 0
-1032 -153 -57 -159 0
-1032 -153 -63 -159 0
-1032 -153 -69 -159 0
-1032 -153 -87 -177 0
-1032 -153 -93 -177 0
-1032 -153 -99 -177 0
-1032 -153 285 393 501 303 411 519 0
-1032 -153 285 393 501 321 429 537 0
-1032 -153 303 411 519 321 429 537 0
-1032 -123 -147 -189 0
-1032 -123 -153 -195 0
-1037 219 0
-1037 -177 0
-1037 -165 106 0
-1037 -165 190 0
-1037 -165 -93 0
-1037 -165 -99 0
-1037 -165 -3 -135 0
-1037 -165 -9 -135 0
-1037 -165 -15 -135 0
-1037 -165 -39 -153 0
-1037 -165 -45 -153 0
-1037 -165 -51 -153 0
-1037 -165 -75 -171 0
-1037 -165 -81 -171 0
-1037 -165 -87 -171 0
-1037 -165 225 333 441 243 351 459 0
-1037 -165 225 333 441 261 369 477 0
-1037 -165 243 351 459 261 369 477 0
-1037 -171 106 0
-1037 -171 196 0
-1037 -171 -93 0
-1037 -171 -99 0
-1037 -171 -3 -141 0
-1037 -171 -9 -141 0
-1037 -171 -15 -141 0
-1037 -171 -39 -159 0
-1037 -171 -45 -159 0
-1037 -171 -51 -159 0
-1037 -171 -75 -177 0
-1037 -171 -81 -177 0
-1037 -171 -87 -177 0
-1037 -171 231 339 447 249 357 465 0
-1037 -171 231 339 447 267 375 483 0
-1037 -171 249 357 465 267 375 483 0
-1037 -105 -165 -189 0
-1037 -105 -171 -195 0
-1042 219 0
-1042 -177 0
-1042 -165 112 0
-1042 -165 190 0
-1042 -165 -99 0
-1042 -165 -9 -135 0
-1042 -165 -15 -135 0
-1042 -165 -21 -135 0
-1042 -165 -45 -153 0
-1042 -165 -51 -153 0
-1042 -165 -57 -153 0
-1042 -165 -75 -171 0
-1042 -165 -81 -171 0
-1042 -165 -87 -171 0
-1042 -165 -93 -171 0
-1042 -165 243 351 459 261 369 477 0
-1042 -165 243 351 459 279 387 495 0
-1042 -165 261 369 477 279 387 495 0
-1042 -171 112 0
-1042 -171 196 0
-1042 -171 -99 0
-1042 -171 -9 -141 0
-1042 -171 -15 -141 0
-1042 -171 -21 -141 0
-1042 -171 -45 -159 0
-1042 -171 -51 -159 0
-1042 -171 -57 -159 0
-1042 -171 -75 -177 0
-1042 -171 -81 -177 0
-1042 -171 -87 -177 0
-1042 -171 -93 -177 0
-1042 -171 249 357 465 267 375 483 0
-1042 -171 249 357 465 285 393 501 0
-1042 -171 267 375 483 285 393 501 0
-1042 -111 -165 -189 0
-1042 -111 -171 -195 0
-1047 219 0
-1047 -177 0
-1047 -165 118 0
-1047 -165 190 0
-1047 -165 -75 0
-1047 -165 -15 -135 0
-1047 -165 -21 -135 0
-1047 -165 -27 -135 0
-1047 -165 -51 -153 0
-1047 -165 -57 -153 0
-1047 -165 -63 -153 0
-1047 -165 -81 -171 0
-1047 -165 -87 -171 0
-1047 -165 -93 -171 0
-1047 -165 -99 -171 0
-1047 -165 261 369 477 279 387 495 0
-1047 -165 261 369 477 297 405 513 0
-1047 -165 279 387 495 297 405 513 0
-1047 -171 118 0
-1047 -171 196 0
-1047 -171 -75 0
-1047 -171 -15 -141 0
-1047 -171 -21 -141 0
-1047 -171 -27 -141 0
-1047 -171 -51 -159 0
-1047 -171 -57 -159 0
-1047 -171 -63 -159 0
-1047 -171 -81 -177 0
-1047 -171 -87 -177 0
-1047 -171 -93 -177 0
-1047 -171 -99 -177 0
-1047 -171 267 375 483 285 393 501 0
-1047 -171 267 375 483 303 411 519 0
-1047 -171 285 393 501 303 411 519 0
-1047 -117 -165 -189 0
-1047 -117 -171 -195 0
-1052 219 0
-1052 -177 0
-1052 -165 124 0
-1052 -165 190 0
-1052 -165 -75 0
-1052 -165 -81 0
-1052 -165 -21 -135 0
-1052 -165 -27 -135 0
-1052 -165 -33 -135 0
-1052 -165 -57 -153 0
-1052 -165 -63 -153 0
-1052 -165 -69 -153 0
-1052 -165 -87 -171 0
-1052 -165 -93 -171 0
-1052 -165 -99 -171 0
-1052 -165 279 387 495 297 405 513 0
-1052 -165 279 387 495 315 423 531 0
-1052 -165 297 405 513 315 423 531 0
-1052 -171 124 0
-1052 -171 196 0
-1052 -171 -75 0
-1052 -171 -81 0
-1052 -171 -21 -141 0
-1052 -171 -27 -141 0
-1052 -171 -33 -141 0
-1052 -171 -57 -159 0
-1052 -171 -63 -159 0
-1052 -171 -69 -159 0
-1052 -171 -87 -177 0
-1052 -171 -93 -177 0
-1052 -171 -99 -177 0
-1052 -171 285 393 501 303 411 519 0
-1052 -171 285 393 501 321 429 537 0
-1052 -171 303 411 519 321 429 537 0
-1052 -123 -165 -189 0
-1052 -123 -171 -195 0
-1057 219 0
-1057 106 0
-1057 184 0
-1057 -105 -183 0
-1057 -3 -129 0
-1057 -9 -129 0
-1057 -15 -129 0
-1057 -39 -147 0
-1057 -45 -147 0
-1057 -51 -147 0
-1057 -75 -165 0
-1057 -81 -165 0
-1057 -87 -165 0
-1062 219 0
-1062 112 0
-1062 184 0
-1062 -111 -183 0
-1062 -9 -129 0
-1062 -15 -129 0
-1062 -21 -129 0
-1062 -45 -147 0
-1062 -51 -147 0
-1062 -57 -147 0
-1062 -75 -165 0
-1062 -81 -165 0
-1062 -87 -165 0
-1062 -93 -165 0
-1067 219 0
-1067 118 0
-1067 184 0
-1067 -117 -183 0
-1067 -15 -129 0
-1067 -21 -129 0
-1067 -27 -129 0
-1067 -51 -147 0
-1067 -57 -147 0
-1067 -63 -147 0
-1067 -81 -165 0
-1067 -87 -165 0
-1067 -93 -165 0
-1067 -99 -165 0
-1072 219 0
-1072 124 0
-1072 184 0
-1072 -123 -183 0
-1072 -21 -129 0
-1072 -27 -129 0
-1072 -33 -129 0
-1072 -57 -147 0
-1072 -63 -147 0
-1072 -69 -147 0
-1072 -87 -165 0
-1072 -93 -165 0
-1072 -99 -165 0
658 663 668 673 678 683 688 693 698 703 708 713 718 723 728 733 738 743 748 753 758 763 768 773 778 783 788 793 798 803 808 813 818 823 828 833 838 843 848 853 858 863 868 873 878 883 888 893 898 903 908 913 918 923 928 933 938 943 948 953 958 963 968 973 978 983 988 993 998 1003 1008 1013 1018 1023 1028 1033 1038 1043 1048 1053 1058 1063 1068 1073 0
-658 -663 0
-658 -668 0
-658 -673 0
-658 -678 0
-658 -683 0
-658 -688 0
-658 -693 0
-658 -698 0
-658 -703 0
-658 -708 0
-658 -713 0
-658 -718 0
-658 -723 0
-658 -728 0
-658 -733 0
-658 -738 0
-658 -743 0
-658 -748 0
-658 -753 0
-658 -758 0
-658 -763 0
-658 -768 0
-658 -773 0
-658 -778 0
-658 -783 0
-658 -788 0
-658 -793 0
-658 -798 0
-658 -803 0
-658 -808 0
-658 -813 0
-658 -818 0
-658 -823 0
-658 -828 0
-658 -833 0
-658 -838 0
-658 -843 0
-658 -848 0
-658 -853 0
-658 -858 0
-658 -863 0
-658 -868 0
-658 -873 0
-658 -878 0
-658 -883 0
-658 -888 0
-658 -893 0
-658 -898 0
-658 -903 0
-658 -908 0
-658 -913 0
-658 -918 0
-658 -923 0
-658 -928 0
-658 -933 0
-658 -938 0
-658 -943 0
-658 -948 0
-658 -953 0
-658 -958 0
-658 -963 0
-658 -968 0
-658 -973 0
-658 -978 0
-658 -983 0
-658 -988 0
-658 -993 0
-658 -998 0
-658 -1003 0
-658 -1008 0
-658 -1013 0
-658 -1018 0
-658 -1023 0
-658 -1028 0
-658 -1033 0
-658 -1038 0
-658 -1043 0
-658 -1048 0
-658 -1053 0
-658 -1058 0
-658 -1063 0
-658 -1068 0
-658 -1073 0
-663 -668 0
-663 -673 0
-663 -678 0
-663 -683 0
-663 -688 0
-663 -693 0
-663 -698 0
-663 -703 0
-663 -708 0
-663 -713 0
-663 -718 0
-663 -723 0
-663 -728 0
-663 -733 0
-663 -738 0
-663 -743 0
-663 -748 0
-663 -753 0
-663 -758 0
-663 -763 0
-663 -768 0
-663 -773 0
-663 -778 0
-663 -783 0
-663 -788 0
-663 -793 0
-663 -798 0
-663 -803 0
-663 -808 0
-663 -813 0
-663 -818 0
-663 -823 0
-663 -828 0
-663 -833 0
-663 -838 0
-663 -843 0
-663 -848 0
-663 -853 0
-663 -858 0
-663 -863 0
-663 -868 0
-663 -873 0
-663 -878 0
-663 -883 0
-663 -888 0
-663 -893 0
-663 -898 0
-663 -903 0
-663 -908 0
-663 -913 0
-663 -918 0
-663 -923 0
-663 -928 0
-663 -933 0
-663 -938 0
-663 -943 0
-663 -948 0
-663 -953 0
-663 -958 0
-663 -963 0
-663 -968 0
-663 -973 0
-663 -978 0
-663 -983 0
-663 -988 0
-663 -993 0
-663 -998 0
-663 -1003 0
-663 -1008 0
-663 -1013 0
-663 -1018 0
-663 -1023 0
-663 -1028 0
-663 -1033 0
-663 -1038 0
-663 -1043 0
-663 -1048 0
-663 -1053 0
-663 -1058 0
-663 -1063 0
-663 -1068 0
-663 -1073 0
-668 -673 0
-668 -678 0
-668 -683 0
-668 -688 0
-668 -693 0
-668 -698 0
-668 -703 0
-668 -708 0
-668 -713 0
-668 -718 0
-668 -723 0
-668 -728 0
-668 -733 0
-668 -738 0
-668 -743 0
-668 -748 0
-668 -753 0
-668 -758 0
-668 -763 0
-668 -768 0
-668 -773 0
-668 -778 0
-668 -783 0
-668 -788 0
-668 -793 0
-668 -798 0
-668 -803 0
-668 -808 0
-668 -813 0
-668 -818 0
-668 -823 0
-668 -828 0
-668 -833 0
-668 -838 0
-668 -843 0
-668 -848 0
-668 -853 0
-668 -858 0
-668 -863 0
-668 -868 0
-668 -873 0
-668 -878 0
-668 -883 0
-668 -888 0
-668 -893 0
-668 -898 0
-668 -903 0
-668 -908 0
-668 -913 0
-668 -918 0
-668 -923 0
-668 -928 0
-668 -933 0
-668 -938 0
-668 -943 0
-668 -948 0
-668 -953 0
-668 -958 0
-668 -963 0
-668 -968 0
-668 -973 0
-668 -978 0
-668 -983 0
-668 -988 0
-668 -993 0
-668 -998 0
-668 -1003 0
-668 -1008 0
-668 -1013 0
-668 -1018 0
-668 -1023 0
-668 -1028 0
-668 -1033 0
-668 -1038 0
-668 -1043 0
-668 -1048 0
-668 -1053 0
-668 -1058 0
-668 -1063 0
-668 -1068 0
-668 -1073 0
-673 -678 0
-673 -683 0
-673 -688 0
-673 -693 0
-673 -698 0
-673 -703 0
-673 -708 0
-673 -713 0
-673 -718 0
-673 -723 0
-673 -728 0
-673 -733 0
-673 -738 0
-673 -743 0
-673 -748 0
-673 -753 0
-673 -758 0
-673 -763 0
-673 -768 0
-673 -773 0
-673 -778 0
-673 -783 0
-673 -788 0
-673 -793 0
-673 -798 0
-673 -803 0
-673 -808 0
-673 -813 0
-673 -818 0
-673 -823 0
-673 -828 0
-673 -833 0
-673 -838 0
-673 -843 0
-673 -848 0
-673 -853 0
-673 -858 0
-673 -863 0
-673 -868 0
-673 -873 0
-673 -878 0
-673 -883 0
-673 -888 0
-673 -893 0
-673 -898 0
-673 -903 0
-673 -908 0
-673 -913 0
-673 -918 0
-673 -923 0
-673 -928 0
-673 -933 0
-673 -938 0
-673 -943 0
-673 -948 0
-673 -953 0
-673 -958 0
-673 -963 0
-673 -968 0
-673 -973 0
-673 -978 0
-673 -983 0
-673 -988 0
-673 -993 0
-673 -998 0
-673 -1003 0
-673 -1008 0
-673 -1013 0
-673 -1018 0
-673 -1023 0
-673 -1028 0
-673 -1033 0
-673 -1038 0
-673 -1043 0
-673 -1048 0
-673 -1053 0
-673 -1058 0
-673 -1063 0
-673 -1068 0
-673 -1073 0
-678 -683 0
-678 -688 0
-678 -693 0
-678 -698 0
-678 -703 0
-678 -708 0
-678 -713 0
-678 -718 0
-678 -723 0
-678 -728 0
-678 -733 0
-678 -738 0
-678 -743 0
-678 -748 0
-678 -753 0
-678 -758 0
-678 -763 0
-678 -768 0
-678 -773 0
-678 -778 0
-678 -783 0
-678 -788 0
-678 -793 0
-678 -798 0
-678 -803 0
-678 -808 0
-678 -813 0
-678 -818 0
-678 -823 0
-678 -828 0
-678 -833 0
-678 -838 0
-678 -843 0
-678 -848 0
-678 -853 0
-678 -858 0
-678 -863 0
-678 -868 0
-678 -873 0
-678 -878 0
-678 -883 0
-678 -888 0
-678 -893 0
-678 -898 0
-678 -903 0
-678 -908 0
-678 -913 0
-678 -918 0
-678 -923 0
-678 -928 0
-678 -933 0
-678 -938 0
-678 -943 0
-678 -948 0
-678 -953 0
-678 -958 0
-678 -963 0
-678 -968 0
-678 -973 0
-678 -978 0
-678 -983 0
-678 -988 0
-678 -993 0
-678 -998 0
-678 -1003 0
-678 -1008 0
-678 -1013 0
-678 -1018 0
-678 -1023 0
-678 -1028 0
-678 -1033 0
-678 -1038 0
-678 -1043 0
-678 -1048 0
-678 -1053 0
-678 -1058 0
-678 -1063 0
-678 -1068 0
-678 -1073 0
-683 -688 0
-683 -693 0
-683 -698 0
-683 -703 0
-683 -708 0
-683 -713 0
-683 -718 0
-683 -723 0
-683 -728 0
-683 -733 0
-683 -738 0
-683 -743 0
-683 -748 0
-683 -753 0
-683 -758 0
-683 -763 0
-683 -768 0
-683 -773 0
-683 -778 0
-683 -783 0
-683 -788 0
-683 -793 0
-683 -798 0
-683 -803 0
-683 -808 0
-683 -813 0
-683 -818 0
-683 -823 0
-683 -828 0
-683 -833 0
-683 -838 0
-683 -843 0
-683 -848 0
-683 -853 0
-683 -858 0
-683 -863 0
-683 -868 0
-683 -873 0
-683 -878 0
-683 -883 0
-683 -888 0
-683 -893 0
-683 -898 0
-683 -903 0
-683 -908 0
-683 -913 0
-683 -918 0
-683 -923 0
-683 -928 0
-683 -933 0
-683 -938 0
-683 -943 0
-683 -948 0
-683 -953 0
-683 -958 0
-683 -963 0
-683 -968 0
-683 -973 0
-683 -978 0
-683 -983 0
-683 -988 0
-683 -993 0
-683 -998 0
-683 -1003 0
-683 -1008 0
-683 -1013 0
-683 -1018 0
-683 -1023 0
-683 -1028 0
-683 -1033 0
-683 -1038 0
-683 -1043 0
-683 -1048 0
-683 -1053 0
-683 -1058 0
-683 -1063 0
-683 -1068 0
-683 -1073 0
-688 -693 0
-688 -698 0
-688 -703 0
-688 -708 0
-688 -713 0
-688 -718 0
-688 -723 0
-688 -728 0
-688 -733 0
-688 -738 0
-688 -743 0
-688 -748 0
-688 -753 0
-688 -758 0
-688 -763 0
-688 -768 0
-688 -773 0
-688 -778 0
-688 -783 0
-688 -788 0
-688 -793 0
-688 -798 0
-688 -803 0
-688 -808 0
-688 -813 0
-688 -818 0
-688 -823 0
-688 -828 0
-688 -833 0
-688 -838 0
-688 -843 0
-688 -848 0
-688 -853 0
-688 -858 0
-688 -863 0
-688 -868 0
-688 -873 0
-688 -878 0
-688 -883 0
-688 -888 0
-688 -893 0
-688 -898 0
-688 -903 0
-688 -908 0
-688 -913 0
-688 -918 0
-688 -923 0
-688 -928 0
-688 -933 0
-688 -938 0
-688 -943 0
-688 -948 0
-688 -953 0
-688 -958 0
-688 -963 0
-688 -968 0
-688 -973 0
-688 -978 0
-688 -983 0
-688 -988 0
-688 -993 0
-688 -998 0
-688 -1003 0
-688 -1008 0
-688 -1013 0
-688 -1018 0
-688 -1023 0
-688 -1028 0
-688 -1033 0
-688 -1038 0
-688 -1043 0
-688 -1048 0
-688 -1053 0
-688 -1058 0
-688 -1063 0
-688 -1068 0
-688 -1073 0
-693 -698 0
-693 -703 0
-693 -708 0
-693 -713 0
-693 -718 0
-693 -723 0
-693 -728 0
-693 -733 0
-693 -738 0
-693 -743 0
-693 -748 0
-693 -753 0
-693 -758 0
-693 -763 0
-693 -768 0
-693 -773 0
-693 -778 0
-693 -783 0
-693 -788 0
-693 -793 0
-693 -798 0
-693 -803 0
-693 -808 0
-693 -813 0
-693 -818 0
-693 -823 0
-693 -828 0
-693 -833 0
-693 -838 0
-693 -843 0
-693 -848 0
-693 -853 0
-693 -858 0
-693 -863 0
-693 -868 0
-693 -873 0
-693 -878 0
-693 -883 0
-693 -888 0
-693 -893 0
-693 -898 0
-693 -903 0
-693 -908 0
-693 -913 0
-693 -918 0
-693 -923 0
-693 -928 0
-693 -933 0
-693 -938 0
-693 -943 0
-693 -948 0
-693 -953 0
-693 -958 0
-693 -963 0
-693 -968 0
-693 -973 0
-693 -978 0
-693 -983 0
-693 -988 0
-693 -993 0
-693 -998 0
-693 -1003 0
-693 -1008 0
-693 -1013 0
-693 -1018 0
-693 -1023 0
-693 -1028 0
-693 -1033 0
-693 -1038 0
-693 -1043 0
-693 -1048 0
-693 -1053 0
-693 -1058 0
-693 -1063 0
-693 -1068 0
-693 -1073 0
-698 -703 0
-698 -708 0
-698 -713 0
-698 -718 0
-698 -723 0
-698 -728 0
-698 -733 0
-698 -738 0
-698 -743 0
-698 -748 0
-698 -753 0
-698 -758 0
-698 -763 0
-698 -768 0
-698 -773 0
-698 -778 0
-698 -783 0
-698 -788 0
-698 -793 0
-698 -798 0
-698 -803 0
-698 -808 0
-698 -813 0
-698 -818 0
-698 -823 0
-698 -828 0
-698 -833 0
-698 -838 0
-698 -843 0
-698 -848 0
-698 -853 0
-698 -858 0
-698 -863 0
-698 -868 0
-698 -873 0
-698 -878 0
-698 -883 0
-698 -888 0
-698 -893 0
-698 -898 0
-698 -903 0
-698 -908 0
-698 -913 0
-698 -918 0
-698 -923 0
-698 -928 0
-698 -933 0
-698 -938 0
-698 -943 0
-698 -948 0
-698 -953 0
-698 -958 0
-698 -963 0
-698 -968 0
-698 -973 0
-698 -978 0
-698 -983 0
-698 -988 0
-698 -993 0
-698 -998 0
-698 -1003 0
-698 -1008 0
-698 -1013 0
-698 -1018 0
-698 -1023 0
-698 -1028 0
-698 -1033 0
-698 -1038 0
-698 -1043 0
-698 -1048 0
-698 -1053 0
-698 -1058 0
-698 -1063 0
-698 -1068 0
-698 -1073 0
-703 -708 0
-703 -713 0
-703 -718 0
-703 -723 0
-703 -728 0
-703 -733 0
-703 -738 0
-703 -743 0
-703 -748 0
-703 -753 0
-703 -758 0
-703 -763 0
-703 -768 0
-703 -773 0
-703 -778 0
-703 -783 0
-703 -788 0
-703 -793 0
-703 -798 0
-703 -803 0
-703 -808 0
-703 -813 0
-703 -818 0
-703 -823 0
-703 -828 0
-703 -833 0
-703 -838 0
-703 -843 0
-703 -848 0
-703 -853 0
-703 -858 0
-703 -863 0
-703 -868 0
-703 -873 0
-703 -878 0
-703 -883 0
-703 -888 0
-703 -893 0
-703 -898 0
-703 -903 0
-703 -908 0
-703 -913 0
-703 -918 0
-703 -923 0
-703 -928 0
-703 -933 0
-703 -938 0
-703 -943 0
-703 -948 0
-703 -953 0
-703 -958 0
-703 -963 0
-703 -968 0
-703 -973 0
-703 -978 0
-703 -983 0
-703 -988 0
-703 -993 0
-703 -998 0
-703 -1003 0
-703 -1008 0
-703 -1013 0
-703 -1018 0
-703 -1023 0
-703 -1028 0
-703 -1033 0
-703 -1038 0
-703 -1043 0
-703 -1048 0
-703 -1053 0
-703 -1058 0
-703 -1063 0
-703 -1068 0
-703 -1073 0
-708 -713 0
-708 -718 0
-708 -723 0
-708 -728 0
-708 -733 0
-708 -738 0
-708 -743 0
-708 -748 0
-708 -753 0
-708 -758 0
-708 -763 0
-708 -768 0
-708 -773 0
-708 -778 0
-708 -783 0
-708 -788 0
-708 -793 0
-708 -798 0
-708 -803 0
-708 -808 0
-708 -813 0
-708 -818 0
-708 -823 0
-708 -828 0
-708 -833 0
-708 -838 0
-708 -843 0
-708 -848 0
-708 -853 0
-708 -858 0
-708 -863 0
-708 -868 0
-708 -873 0
-708 -878 0
-708 -883 0
-708 -888 0
-708 -893 0
-708 -898 0
-708 -903 0
-708 -908 0
-708 -913 0
-708 -918 0
-708 -923 0
-708 -928 0
-708 -933 0
-708 -938 0
-708 -943 0
-708 -948 0
-708 -953 0
-708 -958 0
-708 -963 0
-708 -968 0
-708 -973 0
-708 -978 0
-708 -983 0
-708 -988 0
-708 -993 0
-708 -998 0
-708 -1003 0
-708 -1008 0
-708 -1013 0
-708 -1018 0
-708 -1023 0
-708 -1028 0
-708 -1033 0
-708 -1038 0
-708 -1043 0
-708 -1048 0
-708 -1053 0
-708 -1058 0
-708 -1063 0
-708 -1068 0
-708 -1073 0
-713 -718 0
-713 -723 0
-713 -728 0
-713 -733 0
-713 -738 0
-713 -743 0
-713 -748 0
-713 -753 0
-713 -758 0
-713 -763 0
-713 -768 0
-713 -773 0
-713 -778 0
-713 -783 0
-713 -788 0
-713 -793 0
-713 -798 0
-713 -803 0
-713 -808 0
-713 -813 0
-713 -818 0
-713 -823 0
-713 -828 0
-713 -833 0
-713 -838 0
-713 -843 0
-713 -848 0
-713 -853 0
-713 -858 0
-713 -863 0
-713 -868 0
-713 -873 0
-713 -878 0
-713 -883 0
-713 -888 0
-713 -893 0
-713 -898 0
-713 -903 0
-713 -908 0
-713 -913 0
-713 -918 0
-713 -923 0
-713 -928 0
-713 -933 0
-713 -938 0
-713 -943 0
-713 -948 0
-713 -953 0
-713 -958 0
-713 -963 0
-713 -968 0
-713 -973 0
-713 -978 0
-713 -983 0
-713 -988 0
-713 -993 0
-713 -998 0
-713 -1003 0
-713 -1008 0
-713 -1013 0
-713 -1018 0
-713 -1023 0
-713 -1028 0
-713 -1033 0
-713 -1038 0
-713 -1043 0
-713 -1048 0
-713 -1053 0
-713 -1058 0
-713 -1063 0
-713 -1068 0
-713 -1073 0
-718 -723 0
-718 -728 0
-718 -733 0
-718 -738 0
-718 -743 0
-718 -748 0
-718 -753 0
-718 -758 0
-718 -763 0
-718 -768 0
-718 -773 0
-718 -778 0
-718 -783 0
-718 -788 0
-718 -793 0
-718 -798 0
-718 -803 0
-718 -808 0
-718 -813 0
-718 -818 0
-718 -823 0
-718 -828 0
-718 -833 0
-718 -838 0
-718 -843 0
-718 -848 0
-718 -853 0
-718 -858 0
-718 -863 0
-718 -868 0
-718 -873 0
-718 -878 0
-718 -883 0
-718 -888 0
-718 -893 0
-718 -898 0
-718 -903 0
-718 -908 0
-718 -913 0
-718 -918 0
-718 -923 0
-718 -928 0
-718 -933 0
-718 -938 0
-718 -943 0
-718 -948 0
-718 -953 0
-718 -958 0
-718 -963 0
-718 -968 0
-718 -973 0
-718 -978 0
-718 -983 0
-718 -988 0
-718 -993 0
-718 -998 0
-718 -1003 0
-718 -1008 0
-718 -1013 0
-718 -1018 0
-718 -1023 0
-718 -1028 0
-718 -1033 0
-718 -1038 0
-718 -1043 0
-718 -1048 0
-718 -1053 0
-718 -1058 0
-718 -1063 0
-718 -1068 0
-718 -1073 0
-723 -728 0
-723 -733 0
-723 -738 0
-723 -743 0
-723 -748 0
-723 -753 0
-723 -758 0
-723 -763 0
-723 -768 0
-723 -773 0
-723 -778 0
-723 -783 0
-723 -788 0
-723 -793 0
-723 -798 0
-723 -803 0
-723 -808 0
-723 -813 0
-723 -818 0
-723 -823 0
-723 -828 0
-723 -833 0
-723 -838 0
-723 -843 0
-723 -848 0
-723 -853 0
-723 -858 0
-723 -863 0
-723 -868 0
-723 -873 0
-723 -878 0
-723 -883 0
-723 -888 0
-723 -893 0
-723 -898 0
-723 -903 0
-723 -908 0
-723 -913 0
-723 -918 0
-723 -923 0
-723 -928 0
-723 -933 0
-723 -938 0
-723 -943 0
-723 -948 0
-723 -953 0
-723 -958 0
-723 -963 0
-723 -968 0
-723 -973 0
-723 -978 0
-723 -983 0
-723 -988 0
-723 -993 0
-723 -998 0
-723 -1003 0
-723 -1008 0
-723 -1013 0
-723 -1018 0
-723 -1023 0
-723 -1028 0
-723 -1033 0
-723 -1038 0
-723 -1043 0
-723 -1048 0
-723 -1053 0
-723 -1058 0
-723 -1063 0
-723 -1068 0
-723 -1073 0
-728 -733 0
-728 -738 0
-728 -743 0
-728 -748 0
-728 -753 0
-728 -758 0
-728 -763 0
-728 -768 0
-728 -773 0
-728 -778 0
-728 -783 0
-728 -788 0
-728 -793 0
-728 -798 0
-728 -803 0
-728 -808 0
-728 -813 0
-728 -818 0
-728 -823 0
-728 -828 0
-728 -833 0
-728 -838 0
-728 -843 0
-728 -848 0
-728 -853 0
-728 -858 0
-728 -863 0
-728 -868 0
-728 -873 0
-728 -878 0
-728 -883 0
-728 -888 0
-728 -893 0
-728 -898 0
-728 -903 0
-728 -908 0
-728 -913 0
-728 -918 0
-728 -923 0
-728 -928 0
-728 -933 0
-728 -938 0
-728 -943 0
-728 -948 0
-728 -953 0
-728 -958 0
-728 -963 0
-728 -968 0
-728 -973 0
-728 -978 0
-728 -983 0
-728 -988 0
-728 -993 0
-728 -998 0
-728 -1003 0
-728 -1008 0
-728 -1013 0
-728 -1018 0
-728 -1023 0
-728 -1028 0
-728 -1033 0
-728 -1038 0
-728 -1043 0
-728 -1048 0
-728 -1053 0
-728 -1058 0
-728 -1063 0
-728 -1068 0
-728 -1073 0
-733 -738 0
-733 -743 0
-733 -748 0
-733 -753 0
-733 -758 0
-733 -763 0
-733 -768 0
-733 -773 0
-733 -778 0
-733 -783 0
-733 -788 0
-733 -793 0
-733 -798 0
-733 -803 0
-733 -808 0
-733 -813 0
-733 -818 0
-733 -823 0
-733 -828 0
-733 -833 0
-733 -838 0
-733 -843 0
-733 -848 0
-733 -853 0
-733 -858 0
-733 -863 0
-733 -868 0
-733 -873 0
-733 -878 0
-733 -883 0
-733 -888 0
-733 -893 0
-733 -898 0
-733 -903 0
-733 -908 0
-733 -913 0
-733 -918 0
-733 -923 0
-733 -928 0
-733 -933 0
-733 -938 0
-733 -943 0
-733 -948 0
-733 -953 0
-733 -958 0
-733 -963 0
-733 -968 0
-733 -973 0
-733 -978 0
-733 -983 0
-733 -988 0
-733 -993 0
-733 -998 0
-733 -1003 0
-733 -1008 0
-733 -1013 0
-733 -1018 0
-733 -1023 0
-733 -1028 0
-733 -1033 0
-733 -1038 0
-733 -1043 0
-733 -1048 0
-733 -1053 0
-733 -1058 0
-733 -1063 0
-733 -1068 0
-733 -1073 0
-738 -743 0
-738 -748 0
-738 -753 0
-738 -758 0
-738 -763 0
-738 -768 0
-738 -773 0
-738 -778 0
-738 -783 0
-738 -788 0
-738 -793 0
-738 -798 0
-738 -803 0
-738 -808 0
-738 -813 0
-738 -818 0
-738 -823 0
-738 -828 0
-738 -833 0
-738 -838 0
-738 -843 0
-738 -848 0
-738 -853 0
-738 -858 0
-738 -863 0
-738 -868 0
-738 -873 0
-738 -878 0
-738 -883 0
-738 -888 0
-738 -893 0
-738 -898 0
-738 -903 0
-738 -908 0
-738 -913 0
-738 -918 0
-738 -923 0
-738 -928 0
-738 -933 0
-738 -938 0
-738 -943 0
-738 -948 0
-738 -953 0
-738 -958 0
-738 -963 0
-738 -968 0
-738 -973 0
-738 -978 0
-738 -983 0
-738 -988 0
-738 -993 0
-738 -998 0
-738 -1003 0
-738 -1008 0
-738 -1013 0
-738 -1018 0
-738 -1023 0
-738 -1028 0
-738 -1033 0
-738 -1038 0
-738 -1043 0
-738 -1048 0
-738 -1053 0
-738 -1058 0
-738 -1063 0
-738 -1068 0
-738 -1073 0
-743 -748 0
-743 -753 0
-743 -758 0
-743 -763 0
-743 -768 0
-743 -773 0
-743 -778 0
-743 -783 0
-743 -788 0
-743 -793 0
-743 -798 0
-743 -803 0
-743 -808 0
-743 -813 0
-743 -818 0
-743 -823 0
-743 -828 0
-743 -833 0
-743 -838 0
-743 -843 0
-743 -848 0
-743 -853 0
-743 -858 0
-743 -863 0
-743 -868 0
-743 -873 0
-743 -878 0
-743 -883 0
-743 -888 0
-743 -893 0
-743 -898 0
-743 -903 0
-743 -908 0
-743 -913 0
-743 -918 0
-743 -923 0
-743 -928 0
-743 -933 0
-743 -938 0
-743 -943 0
-743 -948 0
-743 -953 0
-743 -958 0
-743 -963 0
-743 -968 0
-743 -973 0
-743 -978 0
-743 -983 0
-743 -988 0
-743 -993 0
-743 -998 0
-743 -1003 0
-743 -1008 0
-743 -1013 0
-743 -1018 0
-743 -1023 0
-743 -1028 0
-743 -1033 0
-743 -1038 0
-743 -1043 0
-743 -1048 0
-743 -1053 0
-743 -1058 0
-743 -1063 0
-743 -1068 0
-743 -1073 0
-748 -753 0
-748 -758 0
-748 -763 0
-748 -768 0
-748 -773 0
-748 -778 0
-748 -783 0
-748 -788 0
-748 -793 0
-748 -798 0
-748 -803 0
-748 -808 0
-748 -813 0
-748 -818 0
-748 -823 0
-748 -828 0
-748 -833 0
-748 -838 0
-748 -843 0
-748 -848 0
-748 -853 0
-748 -858 0
-748 -863 0
-748 -868 0
-748 -873 0
-748 -878 0
-748 -883 0
-748 -888 0
-748 -893 0
-748 -898 0
-748 -903 0
-748 -908 0
-748 -913 0
-748 -918 0
-748 -923 0
-748 -928 0
-748 -933 0
-748 -938 0
-748 -943 0
-748 -948 0
-748 -953 0
-748 -958 0
-748 -963 0
-748 -968 0
-748 -973 0
-748 -978 0
-748 -983 0
-748 -988 0
-748 -993 0
-748 -998 0
-748 -1003 0
-748 -1008 0
-748 -1013 0
-748 -1018 0
-748 -1023 0
-748 -1028 0
-748 -1033 0
-748 -1038 0
-748 -1043 0
-748 -1048 0
-748 -1053 0
-748 -1058 0
-748 -1063 0
-748 -1068 0
-748 -1073 0
-753 -758 0
-753 -763 0
-753 -768 0
-753 -773 0
-753 -778 0
-753 -783 0
-753 -788 0
-753 -793 0
-753 -798 0
-753 -803 0
-753 -808 0
-753 -813 0
-753 -818 0
-753 -823 0
-753 -828 0
-753 -833 0
-753 -838 0
-753 -843 0
-753 -848 0
-753 -853 0
-753 -858 0
-753 -863 0
-753 -868 0
-753 -873 0
-753 -878 0
-753 -883 0
-753 -888 0
-753 -893 0
-753 -898 0
-753 -903 0
-753 -908 0
-753 -913 0
-753 -918 0
-753 -923 0
-753 -928 0
-753 -933 0
-753 -938 0
-753 -943 0
-753 -948 0
-753 -953 0
-753 -958 0
-753 -963 0
-753 -968 0
-753 -973 0
-753 -978 0
-753 -983 0
-753 -988 0
-753 -993 0
-753 -998 0
-753 -1003 0
-753 -1008 0
-753 -1013 0
-753 -1018 0
-753 -1023 0
-753 -1028 0
-753 -1033 0
-753 -1038 0
-753 -1043 0
-753 -1048 0
-753 -1053 0
-753 -1058 0
-753 -1063 0
-753 -1068 0
-753 -1073 0
-758 -763 0
-758 -768 0
-758 -773 0
-758 -778 0
-758 -783 0
-758 -788 0
-758 -793 0
-758 -798 0
-758 -803 0
-758 -808 0
-758 -813 0
-758 -818 0
-758 -823 0
-758 -828 0
-758 -833 0
-758 -838 0
-758 -843 0
-758 -848 0
-758 -853 0
-758 -858 0
-758 -863 0
-758 -868 0
-758 -873 0
-758 -878 0
-758 -883 0
-758 -888 0
-758 -893 0
-758 -898 0
-758 -903 0
-758 -908 0
-758 -913 0
-758 -918 0
-758 -923 0
-758 -928 0
-758 -933 0
-758 -938 0
-758 -943 0
-758 -948 0
-758 -953 0
-758 -958 0
-758 -963 0
-758 -968 0
-758 -973 0
-758 -978 0
-758 -983 0
-758 -988 0
-758 -993 0
-758 -998 0
-758 -1003 0
-758 -1008 0
-758 -1013 0
-758 -1018 0
-758 -1023 0
-758 -1028 0
-758 -1033 0
-758 -1038 0
-758 -1043 0
-758 -1048 0
-758 -1053 0
-758 -1058 0
-758 -1063 0
-758 -1068 0
-758 -1073 0
-763 -768 0
-763 -773 0
-763 -778 0
-763 -783 0
-763 -788 0
-763 -793 0
-763 -798 0
-763 -803 0
-763 -808 0
-763 -813 0
-763 -818 0
-763 -823 0
-763 -828 0
-763 -833 0
-763 -838 0
-763 -843 0
-763 -848 0
-763 -853 0
-763 -858 0
-763 -863 0
-763 -868 0
-763 -873 0
-763 -878 0
-763 -883 0
-763 -888 0
-763 -893 0
-763 -898 0
-763 -903 0
-763 -908 0
-763 -913 0
-763 -918 0
-763 -923 0
-763 -928 0
-763 -933 0
-763 -938 0
-763 -943 0
-763 -948 0
-763 -953 0
-763 -958 0
-763 -963 0
-763 -968 0
-763 -973 0
-763 -978 0
-763 -983 0
-763 -988 0
-763 -993 0
-763 -998 0
-763 -1003 0
-763 -1008 0
-763 -1013 0
-763 -1018 0
-763 -1023 0
-763 -1028 0
-763 -1033 0
-763 -1038 0
-763 -1043 0
-763 -1048 0
-763 -1053 0
-763 -1058 0
-763 -1063 0
-763 -1068 0
-763 -1073 0
-768 -773 0
-768 -778 0
-768 -783 0
-768 -788 0
-768 -793 0
-768 -798 0
-768 -803 0
-768 -808 0
-768 -813 0
-768 -818 0
-768 -823 0
-768 -828 0
-768 -833 0
-768 -838 0
-768 -843 0
-768 -848 0
-768 -853 0
-768 -858 0
-768 -863 0
-768 -868 0
-768 -873 0
-768 -878 0
-768 -883 0
-768 -888 0
-768 -893 0
-768 -898 0
-768 -903 0
-768 -908 0
-768 -913 0
-768 -918 0
-768 -923 0
-768 -928 0
-768 -933 0
-768 -938 0
-768 -943 0
-768 -948 0
-768 -953 0
-768 -958 0
-768 -963 0
-768 -968 0
-768 -973 0
-768 -978 0
-768 -983 0
-768 -988 0
-768 -993 0
-768 -998 0
-768 -1003 0
-768 -1008 0
-768 -1013 0
-768 -1018 0
-768 -1023 0
-768 -1028 0
-768 -1033 0
-768 -1038 0
-768 -1043 0
-768 -1048 0
-768 -1053 0
-768 -1058 0
-768 -1063 0
-768 -1068 0
-768 -1073 0
-773 -778 0
-773 -783 0
-773 -788 0
-773 -793 0
-773 -798 0
-773 -803 0
-773 -808 0
-773 -813 0
-773 -818 0
-773 -823 0
-773 -828 0
-773 -833 0
-773 -838 0
-773 -843 0
-773 -848 0
-773 -853 0
-773 -858 0
-773 -863 0
-773 -868 0
-773 -873 0
-773 -878 0
-773 -883 0
-773 -888 0
-773 -893 0
-773 -898 0
-773 -903 0
-773 -908 0
-773 -913 0
-773 -918 0
-773 -923 0
-773 -928 0
-773 -933 0
-773 -938 0
-773 -943 0
-773 -948 0
-773 -953 0
-773 -958 0
-773 -963 0
-773 -968 0
-773 -973 0
-773 -978 0
-773 -983 0
-773 -988 0
-773 -993 0
-773 -998 0
-773 -1003 0
-773 -1008 0
-773 -1013 0
-773 -1018 0
-773 -1023 0
-773 -1028 0
-773 -1033 0
-773 -1038 0
-773 -1043 0
-773 -1048 0
-773 -1053 0
-773 -1058 0
-773 -1063 0
-773 -1068 0
-773 -1073 0
-778 -783 0
-778 -788 0
-778 -793 0
-778 -798 0
-778 -803 0
-778 -808 0
-778 -813 0
-778 -818 0
-778 -823 0
-778 -828 0
-778 -833 0
-778 -838 0
-778 -843 0
-778 -848 0
-778 -853 0
-778 -858 0
-778 -863 0
-778 -868 0
-778 -873 0
-778 -878 0
-778 -883 0
-778 -888 0
-778 -893 0
-778 -898 0
-778 -903 0
-778 -908 0
-778 -913 0
-778 -918 0
-778 -923 0
-778 -928 0
-778 -933 0
-778 -938 0
-778 -943 0
-778 -948 0
-778 -953 0
-778 -958 0
-778 -963 0
-778 -968 0
-778 -973 0
-778 -978 0
-778 -983 0
-778 -988 0
-778 -993 0
-778 -998 0
-778 -1003 0
-778 -1008 0
-778 -1013 0
-778 -1018 0
-778 -1023 0
-778 -1028 0
-778 -1033 0
-778 -1038 0
-778 -1043 0
-778 -1048 0
-778 -1053 0
-778 -1058 0
-778 -1063 0
-778 -1068 0
-778 -1073 0
-783 -788 0
-783 -793 0
-783 -798 0
-783 -803 0
-783 -808 0
-783 -813 0
-783 -818 0
-783 -823 0
-783 -828 0
-783 -833 0
-783 -838 0
-783 -843 0
-783 -848 0
-783 -853 0
-783 -858 0
-783 -863 0
-783 -868 0
-783 -873 0
-783 -878 0
-783 -883 0
-783 -888 0
-783 -893 0
-783 -898 0
-783 -903 0
-783 -908 0
-783 -913 0
-783 -918 0
-783 -923 0
-783 -928 0
-783 -933 0
-783 -938 0
-783 -943 0
-783 -948 0
-783 -953 0
-783 -958 0
-783 -963 0
-783 -968 0
-783 -973 0
-783 -978 0
-783 -983 0
-783 -988 0
-783 -993 0
-783 -998 0
-783 -1003 0
-783 -1008 0
-783 -1013 0
-783 -1018 0
-783 -1023 0
-783 -1028 0
-783 -1033 0
-783 -1038 0
-783 -1043 0
-783 -1048 0
-783 -1053 0
-783 -1058 0
-783 -1063 0
-783 -1068 0
-783 -1073 0
-788 -793 0
-788 -798 0
-788 -803 0
-788 -808 0
-788 -813 0
-788 -818 0
-788 -823 0
-788 -828 0
-788 -833 0
-788 -838 0
-788 -843 0
-788 -848 0
-788 -853 0
-788 -858 0
-788 -863 0
-788 -868 0
-788 -873 0
-788 -878 0
-788 -883 0
-788 -888 0
-788 -893 0
-788 -898 0
-788 -903 0
-788 -908 0
-788 -913 0
-788 -918 0
-788 -923 0
-788 -928 0
-788 -933 0
-788 -938 0
-788 -943 0
-788 -948 0
-788 -953 0
-788 -958 0
-788 -963 0
-788 -968 0
-788 -973 0
-788 -978 0
-788 -983 0
-788 -988 0
-788 -993 0
-788 -998 0
-788 -1003 0
-788 -1008 0
-788 -1013 0
-788 -1018 0
-788 -1023 0
-788 -1028 0
-788 -1033 0
-788 -1038 0
-788 -1043 0
-788 -1048 0
-788 -1053 0
-788 -1058 0
-788 -1063 0
-788 -1068 0
-788 -1073 0
-793 -798 0
-793 -803 0
-793 -808 0
-793 -813 0
-793 -818 0
-793 -823 0
-793 -828 0
-793 -833 0
-793 -838 0
-793 -843 0
-793 -848 0
-793 -853 0
-793 -858 0
-793 -863 0
-793 -868 0
-793 -873 0
-793 -878 0
-793 -883 0
-793 -888 0
-793 -893 0
-793 -898 0
-793 -903 0
-793 -908 0
-793 -913 0
-793 -918 0
-793 -923 0
-793 -928 0
-793 -933 0
-793 -938 0
-793 -943 0
-793 -948 0
-793 -953 0
-793 -958 0
-793 -963 0
-793 -968 0
-793 -973 0
-793 -978 0
-793 -983 0
-793 -988 0
-793 -993 0
-793 -998 0
-793 -1003 0
-793 -1008 0
-793 -1013 0
-793 -1018 0
-793 -1023 0
-793 -1028 0
-793 -1033 0
-793 -1038 0
-793 -1043 0
-793 -1048 0
-793 -1053 0
-793 -1058 0
-793 -1063 0
-793 -1068 0
-793 -1073 0
-798 -803 0
-798 -808 0
-798 -813 0
-798 -818 0
-798 -823 0
-798 -828 0
-798 -833 0
-798 -838 0
-798 -843 0
-798 -848 0
-798 -853 0
-798 -858 0
-798 -863 0
-798 -868 0
-798 -873 0
-798 -878 0
-798 -883 0
-798 -888 0
-798 -893 0
-798 -898 0
-798 -903 0
-798 -908 0
-798 -913 0
-798 -918 0
-798 -923 0
-798 -928 0
-798 -933 0
-798 -938 0
-798 -943 0
-798 -948 0
-798 -953 0
-798 -958 0
-798 -963 0
-798 -968 0
-798 -973 0
-798 -978 0
-798 -983 0
-798 -988 0
-798 -993 0
-798 -998 0
-798 -1003 0
-798 -1008 0
-798 -1013 0
-798 -1018 0
-798 -1023 0
-798 -1028 0
-798 -1033 0
-798 -1038 0
-798 -1043 0
-798 -1048 0
-798 -1053 0
-798 -1058 0
-798 -1063 0
-798 -1068 0
-798 -1073 0
-803 -808 0
-803 -813 0
-803 -818 0
-803 -823 0
-803 -828 0
-803 -833 0
-803 -838 0
-803 -843 0
-803 -848 0
-803 -853 0
-803 -858 0
-803 -863 0
-803 -868 0
-803 -873 0
-803 -878 0
-803 -883 0
-803 -888 0
-803 -893 0
-803 -898 0
-803 -903 0
-803 -908 0
-803 -913 0
-803 -918 0
-803 -923 0
-803 -928 0
-803 -933 0
-803 -938 0
-803 -943 0
-803 -948 0
-803 -953 0
-803 -958 0
-803 -963 0
-803 -968 0
-803 -973 0
-803 -978 0
-803 -983 0
-803 -988 0
-803 -993 0
-803 -998 0
-803 -1003 0
-803 -1008 0
-803 -1013 0
-803 -1018 0
-803 -1023 0
-803 -1028 0
-803 -1033 0
-803 -1038 0
-803 -1043 0
-803 -1048 0
-803 -1053 0
-803 -1058 0
-803 -1063 0
-803 -1068 0
-803 -1073 0
-808 -813 0
-808 -818 0
-808 -823 0
-808 -828 0
-808 -833 0
-808 -838 0
-808 -843 0
-808 -848 0
-808 -853 0
-808 -858 0
-808 -863 0
-808 -868 0
-808 -873 0
-808 -878 0
-808 -883 0
-808 -888 0
-808 -893 0
-808 -898 0
-808 -903 0
-808 -908 0
-808 -913 0
-808 -918 0
-808 -923 0
-808 -928 0
-808 -933 0
-808 -938 0
-808 -943 0
-808 -948 0
-808 -953 0
-808 -958 0
-808 -963 0
-808 -968 0
-808 -973 0
-808 -978 0
-808 -983 0
-808 -988 0
-808 -993 0
-808 -998 0
-808 -1003 0
-808 -1008 0
-808 -1013 0
-808 -1018 0
-808 -1023 0
-808 -1028 0
-808 -1033 0
-808 -1038 0
-808 -1043 0
-808 -1048 0
-808 -1053 0
-808 -1058 0
-808 -1063 0
-808 -1068 0
-808 -1073 0
-813 -818 0
-813 -823 0
-813 -828 0
-813 -833 0
-813 -838 0
-813 -843 0
-813 -848 0
-813 -853 0
-813 -858 0
-813 -863 0
-813 -868 0
-813 -873 0
-813 -878 0
-813 -883 0
-813 -888 0
-813 -893 0
-813 -898 0
-813 -903 0
-813 -908 0
-813 -913 0
-813 -918 0
-813 -923 0
-813 -928 0
-813 -933 0
-813 -938 0
-813 -943 0
-813 -948 0
-813 -953 0
-813 -958 0
-813 -963 0
-813 -968 0
-813 -973 0
-813 -978 0
-813 -983 0
-813 -988 0
-813 -993 0
-813 -998 0
-813 -1003 0
-813 -1008 0
-813 -1013 0
-813 -1018 0
-813 -1023 0
-813 -1028 0
-813 -1033 0
-813 -1038 0
-813 -1043 0
-813 -1048 0
-813 -1053 0
-813 -1058 0
-813 -1063 0
-813 -1068 0
-813 -1073 0
-818 -823 0
-818 -828 0
-818 -833 0
-818 -838 0
-818 -843 0
-818 -848 0
-818 -853 0
-818 -858 0
-818 -863 0
-818 -868 0
-818 -873 0
-818 -878 0
-818 -883 0
-818 -888 0
-818 -893 0
-818 -898 0
-818 -903 0
-818 -908 0
-818 -913 0
-818 -918 0
-818 -923 0
-818 -928 0
-818 -933 0
-818 -938 0
-818 -943 0
-818 -948 0
-818 -953 0
-818 -958 0
-818 -963 0
-818 -968 0
-818 -973 0
-818 -978 0
-818 -983 0
-818 -988 0
-818 -993 0
-818 -998 0
-818 -1003 0
-818 -1008 0
-818 -1013 0
-818 -1018 0
-818 -1023 0
-818 -1028 0
-818 -1033 0
-818 -1038 0
-818 -1043 0
-818 -1048 0
-818 -1053 0
-818 -1058 0
-818 -1063 0
-818 -1068 0
-818 -1073 0
-823 -828 0
-823 -833 0
-823 -838 0
-823 -843 0
-823 -848 0
-823 -853 0
-823 -858 0
-823 -863 0
-823 -868 0
-823 -873 0
-823 -878 0
-823 -883 0
-823 -888 0
-823 -893 0
-823 -898 0
-823 -903 0
-823 -908 0
-823 -913 0
-823 -918 0
-823 -923 0
-823 -928 0
-823 -933 0
-823 -938 0
-823 -943 0
-823 -948 0
-823 -953 0
-823 -958 0
-823 -963 0
-823 -968 0
-823 -973 0
-823 -978 0
-823 -983 0
-823 -988 0
-823 -993 0
-823 -998 0
-823 -1003 0
-823 -1008 0
-823 -1013 0
-823 -1018 0
-823 -1023 0
-823 -1028 0
-823 -1033 0
-823 -1038 0
-823 -1043 0
-823 -1048 0
-823 -1053 0
-823 -1058 0
-823 -1063 0
-823 -1068 0
-823 -1073 0
-828 -833 0
-828 -838 0
-828 -843 0
-828 -848 0
-828 -853 0
-828 -858 0
-828 -863 0
-828 -868 0
-828 -873 0
-828 -878 0
-828 -883 0
-828 -888 0
-828 -893 0
-828 -898 0
-828 -903 0
-828 -908 0
-828 -913 0
-828 -918 0
-828 -923 0
-828 -928 0
-828 -933 0
-828 -938 0
-828 -943 0
-828 -948 0
-828 -953 0
-828 -958 0
-828 -963 0
-828 -968 0
-828 -973 0
-828 -978 0
-828 -983 0
-828 -988 0
-828 -993 0
-828 -998 0
-828 -1003 0
-828 -1008 0
-828 -1013 0
-828 -1018 0
-828 -1023 0
-828 -1028 0
-828 -1033 0
-828 -1038 0
-828 -1043 0
-828 -1048 0
-828 -1053 0
-828 -1058 0
-828 -1063 0
-828 -1068 0
-828 -1073 0
-833 -838 0
-833 -843 0
-833 -848 0
-833 -853 0
-833 -858 0
-833 -863 0
-833 -868 0
-833 -873 0
-833 -878 0
-833 -883 0
-833 -888 0
-833 -893 0
-833 -898 0
-833 -903 0
-833 -908 0
-833 -913 0
-833 -918 0
-833 -923 0
-833 -928 0
-833 -933 0
-833 -938 0
-833 -943 0
-833 -948 0
-833 -953 0
-833 -958 0
-833 -963 0
-833 -968 0
-833 -973 0
-833 -978 0
-833 -983 0
-833 -988 0
-833 -993 0
-833 -998 0
-833 -1003 0
-833 -1008 0
-833 -1013 0
-833 -1018 0
-833 -1023 0
-833 -1028 0
-833 -1033 0
-833 -1038 0
-833 -1043 0
-833 -1048 0
-833 -1053 0
-833 -1058 0
-833 -1063 0
-833 -1068 0
-833 -1073 0
-838 -843 0
-838 -848 0
-838 -853 0
-838 -858 0
-838 -863 0
-838 -868 0
-838 -873 0
-838 -878 0
-838 -883 0
-838 -888 0
-838 -893 0
-838 -898 0
-838 -903 0
-838 -908 0
-838 -913 0
-838 -918 0
-838 -923 0
-838 -928 0
-838 -933 0
-838 -938 0
-838 -943 0
-838 -948 0
-838 -953 0
-838 -958 0
-838 -963 0
-838 -968 0
-838 -973 0
-838 -978 0
-838 -983 0
-838 -988 0
-838 -993 0
-838 -998 0
-838 -1003 0
-838 -1008 0
-838 -1013 0
-838 -1018 0
-838 -1023 0
-838 -1028 0
-838 -1033 0
-838 -1038 0
-838 -1043 0
-838 -1048 0
-838 -1053 0
-838 -1058 0
-838 -1063 0
-838 -1068 0
-838 -1073 0
-843 -848 0
-843 -853 0
-843 -858 0
-843 -863 0
-843 -868 0
-843 -873 0
-843 -878 0
-843 -883 0
-843 -888 0
-843 -893 0
-843 -898 0
-843 -903 0
-843 -908 0
-843 -913 0
-843 -918 0
-843 -923 0
-843 -928 0
-843 -933 0
-843 -938 0
-843 -943 0
-843 -948 0
-843 -953 0
-843 -958 0
-843 -963 0
-843 -968 0
-843 -973 0
-843 -978 0
-843 -983 0
-843 -988 0
-843 -993 0
-843 -998 0
-843 -1003 0
-843 -1008 0
-843 -1013 0
-843 -1018 0
-843 -1023 0
-843 -1028 0
-843 -1033 0
-843 -1038 0
-843 -1043 0
-843 -1048 0
-843 -1053 0
-843 -1058 0
-843 -1063 0
-843 -1068 0
-843 -1073 0
-848 -853 0
-848 -858 0
-848 -863 0
-848 -868 0
-848 -873 0
-848 -878 0
-848 -883 0
-848 -888 0
-848 -893 0
-848 -898 0
-848 -903 0
-848 -908 0
-848 -913 0
-848 -918 0
-848 -923 0
-848 -928 0
-848 -933 0
-848 -938 0
-848 -943 0
-848 -948 0
-848 -953 0
-848 -958 0
-848 -963 0
-848 -968 0
-848 -973 0
-848 -978 0
-848 -983 0
-848 -988 0
-848 -993 0
-848 -998 0
-848 -1003 0
-848 -1008 0
-848 -1013 0
-848 -1018 0
-848 -1023 0
-848 -1028 0
-848 -1033 0
-848 -1038 0
-848 -1043 0
-848 -1048 0
-848 -1053 0
-848 -1058 0
-848 -1063 0
-848 -1068 0
-848 -1073 0
-853 -858 0
-853 -863 0
-853 -868 0
-853 -873 0
-853 -878 0
-853 -883 0
-853 -888 0
-853 -893 0
-853 -898 0
-853 -903 0
-853 -908 0
-853 -913 0
-853 -918 0
-853 -923 0
-853 -928 0
-853 -933 0
-853 -938 0
-853 -943 0
-853 -948 0
-853 -953 0
-853 -958 0
-853 -963 0
-853 -968 0
-853 -973 0
-853 -978 0
-853 -983 0
-853 -988 0
-853 -993 0
-853 -998 0
-853 -1003 0
-853 -1008 0
-853 -1013 0
-853 -1018 0
-853 -1023 0
-853 -1028 0
-853 -1033 0
-853 -1038 0
-853 -1043 0
-853 -1048 0
-853 -1053 0
-853 -1058 0
-853 -1063 0
-853 -1068 0
-853 -1073 0
-858 -863 0
-858 -868 0
-858 -873 0
-858 -878 0
-858 -883 0
-858 -888 0
-858 -893 0
-858 -898 0
-858 -903 0
-858 -908 0
-858 -913 0
-858 -918 0
-858 -923 0
-858 -928 0
-858 -933 0
-858 -938 0
-858 -943 0
-858 -948 0
-858 -953 0
-858 -958 0
-858 -963 0
-858 -968 0
-858 -973 0
-858 -978 0
-858 -983 0
-858 -988 0
-858 -993 0
-858 -998 0
-858 -1003 0
-858 -1008 0
-858 -1013 0
-858 -1018 0
-858 -1023 0
-858 -1028 0
-858 -1033 0
-858 -1038 0
-858 -1043 0
-858 -1048 0
-858 -1053 0
-858 -1058 0
-858 -1063 0
-858 -1068 0
-858 -1073 0
-863 -868 0
-863 -873 0
-863 -878 0
-863 -883 0
-863 -888 0
-863 -893 0
-863 -898 0
-863 -903 0
-863 -908 0
-863 -913 0
-863 -918 0
-863 -923 0
-863 -928 0
-863 -933 0
-863 -938 0
-863 -943 0
-863 -948 0
-863 -953 0
-863 -958 0
-863 -963 0
-863 -968 0
-863 -973 0
-863 -978 0
-863 -983 0
-863 -988 0
-863 -993 0
-863 -998 0
-863 -1003 0
-863 -1008 0
-863 -1013 0
-863 -1018 0
-863 -1023 0
-863 -1028 0
-863 -1033 0
-863 -1038 0
-863 -1043 0
-863 -1048 0
-863 -1053 0
-863 -1058 0
-863 -1063 0
-863 -1068 0
-863 -1073 0
-868 -873 0
-868 -878 0
-868 -883 0
-868 -888 0
-868 -893 0
-868 -898 0
-868 -903 0
-868 -908 0
-868 -913 0
-868 -918 0
-868 -923 0
-868 -928 0
-868 -933 0
-868 -938 0
-868 -943 0
-868 -948 0
-868 -953 0
-868 -958 0
-868 -963 0
-868 -968 0
-868 -973 0
-868 -978 0
-868 -983 0
-868 -988 0
-868 -993 0
-868 -998 0
-868 -1003 0
-868 -1008 0
-868 -1013 0
-868 -1018 0
-868 -1023 0
-868 -1028 0
-868 -1033 0
-868 -1038 0
-868 -1043 0
-868 -1048 0
-868 -1053 0
-868 -1058 0
-868 -1063 0
-868 -1068 0
-868 -1073 0
-873 -878 0
-873 -883 0
-873 -888 0
-873 -893 0
-873 -898 0
-873 -903 0
-873 -908 0
-873 -913 0
-873 -918 0
-873 -923 0
-873 -928 0
-873 -933 0
-873 -938 0
-873 -943 0
-873 -948 0
-873 -953 0
-873 -958 0
-873 -963 0
-873 -968 0
-873 -973 0
-873 -978 0
-873 -983 0
-873 -988 0
-873 -993 0
-873 -998 0
-873 -1003 0
-873 -1008 0
-873 -1013 0
-873 -1018 0
-873 -1023 0
-873 -1028 0
-873 -1033 0
-873 -1038 0
-873 -1043 0
-873 -1048 0
-873 -1053 0
-873 -1058 0
-873 -1063 0
-873 -1068 0
-873 -1073 0
-878 -883 0
-878 -888 0
-878 -893 0
-878 -898 0
-878 -903 0
-878 -908 0
-878 -913 0
-878 -918 0
-878 -923 0
-878 -928 0
-878 -933 0
-878 -938 0
-878 -943 0
-878 -948 0
-878 -953 0
-878 -958 0
-878 -963 0
-878 -968 0
-878 -973 0
-878 -978 0
-878 -983 0
-878 -988 0
-878 -993 0
-878 -998 0
-878 -1003 0
-878 -1008 0
-878 -1013 0
-878 -1018 0
-878 -1023 0
-878 -1028 0
-878 -1033 0
-878 -1038 0
-878 -1043 0
-878 -1048 0
-878 -1053 0
-878 -1058 0
-878 -1063 0
-878 -1068 0
-878 -1073 0
-883 -888 0
-883 -893 0
-883 -898 0
-883 -903 0
-883 -908 0
-883 -913 0
-883 -918 0
-883 -923 0
-883 -928 0
-883 -933 0
-883 -938 0
-883 -943 0
-883 -948 0
-883 -953 0
-883 -958 0
-883 -963 0
-883 -968 0
-883 -973 0
-883 -978 0
-883 -983 0
-883 -988 0
-883 -993 0
-883 -998 0
-883 -1003 0
-883 -1008 0
-883 -1013 0
-883 -1018 0
-883 -1023 0
-883 -1028 0
-883 -1033 0
-883 -1038 0
-883 -1043 0
-883 -1048 0
-883 -1053 0
-883 -1058 0
-883 -1063 0
-883 -1068 0
-883 -1073 0
-888 -893 0
-888 -898 0
-888 -903 0
-888 -908 0
-888 -913 0
-888 -918 0
-888 -923 0
-888 -928 0
-888 -933 0
-888 -938 0
-888 -943 0
-888 -948 0
-888 -953 0
-888 -958 0
-888 -963 0
-888 -968 0
-888 -973 0
-888 -978 0
-888 -983 0
-888 -988 0
-888 -993 0
-888 -998 0
-888 -1003 0
-888 -1008 0
-888 -1013 0
-888 -1018 0
-888 -1023 0
-888 -1028 0
-888 -1033 0
-888 -1038 0
-888 -1043 0
-888 -1048 0
-888 -1053 0
-888 -1058 0
-888 -1063 0
-888 -1068 0
-888 -1073 0
-893 -898 0
-893 -903 0
-893 -908 0
-893 -913 0
-893 -918 0
-893 -923 0
-893 -928 0
-893 -933 0
-893 -938 0
-893 -943 0
-893 -948 0
-893 -953 0
-893 -958 0
-893 -963 0
-893 -968 0
-893 -973 0
-893 -978 0
-893 -983 0
-893 -988 0
-893 -993 0
-893 -998 0
-893 -1003 0
-893 -1008 0
-893 -1013 0
-893 -1018 0
-893 -1023 0
-893 -1028 0
-893 -1033 0
-893 -1038 0
-893 -1043 0
-893 -1048 0
-893 -1053 0
-893 -1058 0
-893 -1063 0
-893 -1068 0
-893 -1073 0
-898 -903 0
-898 -908 0
-898 -913 0
-898 -918 0
-898 -923 0
-898 -928 0
-898 -933 0
-898 -938 0
-898 -943 0
-898 -948 0
-898 -953 0
-898 -958 0
-898 -963 0
-898 -968 0
-898 -973 0
-898 -978 0
-898 -983 0
-898 -988 0
-898 -993 0
-898 -998 0
-898 -1003 0
-898 -1008 0
-898 -1013 0
-898 -1018 0
-898 -1023 0
-898 -1028 0
-898 -1033 0
-898 -1038 0
-898 -1043 0
-898 -1048 0
-898 -1053 0
-898 -1058 0
-898 -1063 0
-898 -1068 0
-898 -1073 0
-903 -908 0
-903 -913 0
-903 -918 0
-903 -923 0
-903 -928 0
-903 -933 0
-903 -938 0
-903 -943 0
-903 -948 0
-903 -953 0
-903 -958 0
-903 -963 0
-903 -968 0
-903 -973 0
-903 -978 0
-903 -983 0
-903 -988 0
-903 -993 0
-903 -998 0
-903 -1003 0
-903 -1008 0
-903 -1013 0
-903 -1018 0
-903 -1023 0
-903 -1028 0
-903 -1033 0
-903 -1038 0
-903 -1043 0
-903 -1048 0
-903 -1053 0
-903 -1058 0
-903 -1063 0
-903 -1068 0
-903 -1073 0
-908 -913 0
-908 -918 0
-908 -923 0
-908 -928 0
-908 -933 0
-908 -938 0
-908 -943 0
-908 -948 0
-908 -953 0
-908 -958 0
-908 -963 0
-908 -968 0
-908 -973 0
-908 -978 0
-908 -983 0
-908 -988 0
-908 -993 0
-908 -998 0
-908 -1003 0
-908 -1008 0
-908 -1013 0
-908 -1018 0
-908 -1023 0
-908 -1028 0
-908 -1033 0
-908 -1038 0
-908 -1043 0
-908 -1048 0
-908 -1053 0
-908 -1058 0
-908 -1063 0
-908 -1068 0
-908 -1073 0
-913 -918 0
-913 -923 0
-913 -928 0
-913 -933 0
-913 -938 0
-913 -943 0
-913 -948 0
-913 -953 0
-913 -958 0
-913 -963 0
-913 -968 0
-913 -973 0
-913 -978 0
-913 -983 0
-913 -988 0
-913 -993 0
-913 -998 0
-913 -1003 0
-913 -1008 0
-913 -1013 0
-913 -1018 0
-913 -1023 0
-913 -1028 0
-913 -1033 0
-913 -1038 0
-913 -1043 0
-913 -1048 0
-913 -1053 0
-913 -1058 0
-913 -1063 0
-913 -1068 0
-913 -1073 0
-918 -923 0
-918 -928 0
-918 -933 0
-918 -938 0
-918 -943 0
-918 -948 0
-918 -953 0
-918 -958 0
-918 -963 0
-918 -968 0
-918 -973 0
-918 -978 0
-918 -983 0
-918 -988 0
-918 -993 0
-918 -998 0
-918 -1003 0
-918 -1008 0
-918 -1013 0
-918 -1018 0
-918 -1023 0
-918 -1028 0
-918 -1033 0
-918 -1038 0
-918 -1043 0
-918 -1048 0
-918 -1053 0
-918 -1058 0
-918 -1063 0
-918 -1068 0
-918 -1073 0
-923 -928 0
-923 -933 0
-923 -938 0
-923 -943 0
-923 -948 0
-923 -953 0
-923 -958 0
-923 -963 0
-923 -968 0
-923 -973 0
-923 -978 0
-923 -983 0
-923 -988 0
-923 -993 0
-923 -998 0
-923 -1003 0
-923 -1008 0
-923 -1013 0
-923 -1018 0
-923 -1023 0
-923 -1028 0
-923 -1033 0
-923 -1038 0
-923 -1043 0
-923 -1048 0
-923 -1053 0
-923 -1058 0
-923 -1063 0
-923 -1068 0
-923 -1073 0
-928 -933 0
-928 -938 0
-928 -943 0
-928 -948 0
-928 -953 0
-928 -958 0
-928 -963 0
-928 -968 0
-928 -973 0
-928 -978 0
-928 -983 0
-928 -988 0
-928 -993 0
-928 -998 0
-928 -1003 0
-928 -1008 0
-928 -1013 0
-928 -1018 0
-928 -1023 0
-928 -1028 0
-928 -1033 0
-928 -1038 0
-928 -1043 0
-928 -1048 0
-928 -1053 0
-928 -1058 0
-928 -1063 0
-928 -1068 0
-928 -1073 0
-933 -938 0
-933 -943 0
-933 -948 0
-933 -953 0
-933 -958 0
-933 -963 0
-933 -968 0
-933 -973 0
-933 -978 0
-933 -983 0
-933 -988 0
-933 -993 0
-933 -998 0
-933 -1003 0
-933 -1008 0
-933 -1013 0
-933 -1018 0
-933 -1023 0
-933 -1028 0
-933 -1033 0
-933 -1038 0
-933 -1043 0
-933 -1048 0
-933 -1053 0
-933 -1058 0
-933 -1063 0
-933 -1068 0
-933 -1073 0
-938 -943 0
-938 -948 0
-938 -953 0
-938 -958 0
-938 -963 0
-938 -968 0
-938 -973 0
-938 -978 0
-938 -983 0
-938 -988 0
-938 -993 0
-938 -998 0
-938 -1003 0
-938 -1008 0
-938 -1013 0
-938 -1018 0
-938 -1023 0
-938 -1028 0
-938 -1033 0
-938 -1038 0
-938 -1043 0
-938 -1048 0
-938 -1053 0
-938 -1058 0
-938 -1063 0
-938 -1068 0
-938 -1073 0
-943 -948 0
-943 -953 0
-943 -958 0
-943 -963 0
-943 -968 0
-943 -973 0
-943 -978 0
-943 -983 0
-943 -988 0
-943 -993 0
-943 -998 0
-943 -1003 0
-943 -1008 0
-943 -1013 0
-943 -1018 0
-943 -1023 0
-943 -1028 0
-943 -1033 0
-943 -1038 0
-943 -1043 0
-943 -1048 0
-943 -1053 0
-943 -1058 0
-943 -1063 0
-943 -1068 0
-943 -1073 0
-948 -953 0
-948 -958 0
-948 -963 0
-948 -968 0
-948 -973 0
-948 -978 0
-948 -983 0
-948 -988 0
-948 -993 0
-948 -998 0
-948 -1003 0
-948 -1008 0
-948 -1013 0
-948 -1018 0
-948 -1023 0
-948 -1028 0
-948 -1033 0
-948 -1038 0
-948 -1043 0
-948 -1048 0
-948 -1053 0
-948 -1058 0
-948 -1063 0
-948 -1068 0
-948 -1073 0
-953 -958 0
-953 -963 0
-953 -968 0
-953 -973 0
-953 -978 0
-953 -983 0
-953 -988 0
-953 -993 0
-953 -998 0
-953 -1003 0
-953 -1008 0
-953 -1013 0
-953 -1018 0
-953 -1023 0
-953 -1028 0
-953 -1033 0
-953 -1038 0
-953 -1043 0
-953 -1048 0
-953 -1053 0
-953 -1058 0
-953 -1063 0
-953 -1068 0
-953 -1073 0
-958 -963 0
-958 -968 0
-958 -973 0
-958 -978 0
-958 -983 0
-958 -988 0
-958 -993 0
-958 -998 0
-958 -1003 0
-958 -1008 0
-958 -1013 0
-958 -1018 0
-958 -1023 0
-958 -1028 0
-958 -1033 0
-958 -1038 0
-958 -1043 0
-958 -1048 0
-958 -1053 0
-958 -1058 0
-958 -1063 0
-958 -1068 0
-958 -1073 0
-963 -968 0
-963 -973 0
-963 -978 0
-963 -983 0
-963 -988 0
-963 -993 0
-963 -998 0
-963 -1003 0
-963 -1008 0
-963 -1013 0
-963 -1018 0
-963 -1023 0
-963 -1028 0
-963 -1033 0
-963 -1038 0
-963 -1043 0
-963 -1048 0
-963 -1053 0
-963 -1058 0
-963 -1063 0
-963 -1068 0
-963 -1073 0
-968 -973 0
-968 -978 0
-968 -983 0
-968 -988 0
-968 -993 0
-968 -998 0
-968 -1003 0
-968 -1008 0
-968 -1013 0
-968 -1018 0
-968 -1023 0
-968 -1028 0
-968 -1033 0
-968 -1038 0
-968 -1043 0
-968 -1048 0
-968 -1053 0
-968 -1058 0
-968 -1063 0
-968 -1068 0
-968 -1073 0
-973 -978 0
-973 -983 0
-973 -988 0
-973 -993 0
-973 -998 0
-973 -1003 0
-973 -1008 0
-973 -1013 0
-973 -1018 0
-973 -1023 0
-973 -1028 0
-973 -1033 0
-973 -1038 0
-973 -1043 0
-973 -1048 0
-973 -1053 0
-973 -1058 0
-973 -1063 0
-973 -1068 0
-973 -1073 0
-978 -983 0
-978 -988 0
-978 -993 0
-978 -998 0
-978 -1003 0
-978 -1008 0
-978 -1013 0
-978 -1018 0
-978 -1023 0
-978 -1028 0
-978 -1033 0
-978 -1038 0
-978 -1043 0
-978 -1048 0
-978 -1053 0
-978 -1058 0
-978 -1063 0
-978 -1068 0
-978 -1073 0
-983 -988 0
-983 -993 0
-983 -998 0
-983 -1003 0
-983 -1008 0
-983 -1013 0
-983 -1018 0
-983 -1023 0
-983 -1028 0
-983 -1033 0
-983 -1038 0
-983 -1043 0
-983 -1048 0
-983 -1053 0
-983 -1058 0
-983 -1063 0
-983 -1068 0
-983 -1073 0
-988 -993 0
-988 -998 0
-988 -1003 0
-988 -1008 0
-988 -1013 0
-988 -1018 0
-988 -1023 0
-988 -1028 0
-988 -1033 0
-988 -1038 0
-988 -1043 0
-988 -1048 0
-988 -1053 0
-988 -1058 0
-988 -1063 0
-988 -1068 0
-988 -1073 0
-993 -998 0
-993 -1003 0
-993 -1008 0
-993 -1013 0
-993 -1018 0
-993 -1023 0
-993 -1028 0
-993 -1033 0
-993 -1038 0
-993 -1043 0
-993 -1048 0
-993 -1053 0
-993 -1058 0
-993 -1063 0
-993 -1068 0
-993 -1073 0
-998 -1003 0
-998 -1008 0
-998 -1013 0
-998 -1018 0
-998 -1023 0
-998 -1028 0
-998 -1033 0
-998 -1038 0
-998 -1043 0
-998 -1048 0
-998 -1053 0
-998 -1058 0
-998 -1063 0
-998 -1068 0
-998 -1073 0
-1003 -1008 0
-1003 -1013 0
-1003 -1018 0
-1003 -1023 0
-1003 -1028 0
-1003 -1033 0
-1003 -1038 0
-1003 -1043 0
-1003 -1048 0
-1003 -1053 0
-1003 -1058 0
-1003 -1063 0
-1003 -1068 0
-1003 -1073 0
-1008 -1013 0
-1008 -1018 0
-1008 -1023 0
-1008 -1028 0
-1008 -1033 0
-1008 -1038 0
-1008 -1043 0
-1008 -1048 0
-1008 -1053 0
-1008 -1058 0
-1008 -1063 0
-1008 -1068 0
-1008 -1073 0
-1013 -1018 0
-1013 -1023 0
-1013 -1028 0
-1013 -1033 0
-1013 -1038 0
-1013 -1043 0
-1013 -1048 0
-1013 -1053 0
-1013 -1058 0
-1013 -1063 0
-1013 -1068 0
-1013 -1073 0
-1018 -1023 0
-1018 -1028 0
-1018 -1033 0
-1018 -1038 0
-1018 -1043 0
-1018 -1048 0
-1018 -1053 0
-1018 -1058 0
-1018 -1063 0
-1018 -1068 0
-1018 -1073 0
-1023 -1028 0
-1023 -1033 0
-1023 -1038 0
-1023 -1043 0
-1023 -1048 0
-1023 -1053 0
-1023 -1058 0
-1023 -1063 0
-1023 -1068 0
-1023 -1073 0
-1028 -1033 0
-1028 -1038 0
-1028 -1043 0
-1028 -1048 0
-1028 -1053 0
-1028 -1058 0
-1028 -1063 0
-1028 -1068 0
-1028 -1073 0
-1033 -1038 0
-1033 -1043 0
-1033 -1048 0
-1033 -1053 0
-1033 -1058 0
-1033 -1063 0
-1033 -1068 0
-1033 -1073 0
-1038 -1043 0
-1038 -1048 0
-1038 -1053 0
-1038 -1058 0
-1038 -1063 0
-1038 -1068 0
-1038 -1073 0
-1043 -1048 0
-1043 -1053 0
-1043 -1058 0
-1043 -1063 0
-1043 -1068 0
-1043 -1073 0
-1048 -1053 0
-1048 -1058 0
-1048 -1063 0
-1048 -1068 0
-1048 -1073 0
-1053 -1058 0
-1053 -1063 0
-1053 -1068 0
-1053 -1073 0
-1058 -1063 0
-1058 -1068 0
-1058 -1073 0
-1063 -1068 0
-1063 -1073 0
-1068 -1073 0
-658 202 0
-658 -160 0
-658 -148 5 0
-658 -148 137 0
-658 -148 -46 0
-658 -148 -52 0
-658 -148 -58 0
-658 -148 -64 0
-658 -148 -70 0
-658 -148 -40 -154 0
-658 -148 -76 -172 0
-658 -148 -106 -190 0
-658 -148 334 442 550 0
-658 -154 5 0
-658 -154 143 0
-658 -154 -46 0
-658 -154 -52 0
-658 -154 -58 0
-658 -154 -64 0
-658 -154 -70 0
-658 -154 -40 -160 0
-658 -154 -76 -178 0
-658 -154 -106 -196 0
-658 -154 340 448 556 0
-658 -4 -148 -136 0
-658 -4 -154 -142 0
-663 202 0
-663 -160 0
-663 -148 11 0
-663 -148 137 0
-663 -148 -40 0
-663 -148 -52 0
-663 -148 -58 0
-663 -148 -64 0
-663 -148 -70 0
-663 -148 -46 -154 0
-663 -148 -76 -172 0
-663 -148 -82 -172 0
-663 -148 -106 -190 0
-663 -148 -112 -190 0
-663 -148 352 460 568 0
-663 -154 11 0
-663 -154 143 0
-663 -154 -40 0
-663 -154 -52 0
-663 -154 -58 0
-663 -154 -64 0
-663 -154 -70 0
-663 -154 -46 -160 0
-663 -154 -76 -178 0
-663 -154 -82 -178 0
-663 -154 -106 -196 0
-663 -154 -112 -196 0
-663 -154 358 466 574 0
-663 -10 -148 -136 0
-663 -10 -154 -142 0
-668 202 0
-668 -160 0
-668 -148 17 0
-668 -148 137 0
-668 -148 -40 0
-668 -148 -46 0
-668 -148 -58 0
-668 -148 -64 0
-668 -148 -70 0
-668 -148 -52 -154 0
-668 -148 -82 -172 0
-668 -148 -88 -172 0
-668 -148 -106 -190 0
-668 -148 -112 -190 0
-668 -148 -118 -190 0
-668 -148 370 478 586 0
-668 -154 17 0
-668 -154 143 0
-668 -154 -40 0
-668 -154 -46 0
-668 -154 -58 0
-668 -154 -64 0
-668 -154 -70 0
-668 -154 -52 -160 0
-668 -154 -82 -178 0
-668 -154 -88 -178 0
-668 -154 -106 -196 0
-668 -154 -112 -196 0
-668 -154 -118 -196 0
-668 -154 376 484 592 0
-668 -16 -148 -136 0
-668 -16 -154 -142 0
-673 202 0
-673 -160 0
-673 -148 23 0
-673 -148 137 0
-673 -148 -40 0
-673 -148 -46 0
-673 -148 -52 0
-673 -148 -64 0
-673 -148 -70 0
-673 -148 -58 -154 0
-673 -148 -88 -172 0
-673 -148 -94 -172 0
-673 -148 -112 -190 0
-673 -148 -118 -190 0
-673 -148 -124 -190 0
-673 -148 388 496 604 0
-673 -154 23 0
-673 -154 143 0
-673 -154 -40 0
-673 -154 -46 0
-673 -154 -52 0
-673 -154 -64 0
-673 -154 -70 0
-673 -154 -58 -160 0
-673 -154 -88 -178 0
-673 -154 -94 -178 0
-673 -154 -112 -196 0
-673 -154 -118 -196 0
-673 -154 -124 -196 0
-673 -154 394 502 610 0
-673 -22 -148 -136 0
-673 -22 -154 -142 0
-678 202 0
-678 -160 0
-678 -148 29 0
-678 -148 137 0
-678 -148 -40 0
-678 -148 -46 0
-678 -148 -52 0
-678 -148 -58 0
-678 -148 -70 0
-678 -148 -64 -154 0
-678 -148 -94 -172 0
-678 -148 -100 -172 0
-678 -148 -118 -190 0
-678 -148 -124 -190 0
-678 -148 406 514 622 0
-678 -154 29 0
-678 -154 143 0
-678 -154 -40 0
-678 -154 -46 0
-678 -154 -52 0
-678 -154 -58 0
-678 -154 -70 0
-678 -154 -64 -160 0
-678 -154 -94 -178 0
-678 -154 -100 -178 0
-678 -154 -118 -196 0
-678 -154 -124 -196 0
-678 -154 412 520 628 0
-678 -28 -148 -136 0
-678 -28 -154 -142 0
-683 202 0
-683 -160 0
-683 -148 35 0
-683 -148 137 0
-683 -148 -40 0
-683 -148 -46 0
-683 -148 -52 0
-683 -148 -58 0
-683 -148 -64 0
-683 -148 -70 -154 0
-683 -148 -100 -172 0
-683 -148 -124 -190 0
-683 -148 424 532 640 0
-683 -154 35 0
-683 -154 143 0
-683 -154 -40 0
-683 -154 -46 0
-683 -154 -52 0
-683 -154 -58 0
-683 -154 -64 0
-683 -154 -70 -160 0
-683 -154 -100 -178 0
-683 -154 -124 -196 0
-683 -154 430 538 646 0
-683 -34 -148 -136 0
-683 -34 -154 -142 0
-688 202 0
-688 -178 0
-688 -166 5 0
-688 -166 137 0
-688 -166 -82 0
-688 -166 -88 0
-688 -166 -94 0
-688 -166 -100 0
-688 -166 -40 -154 0
-688 -166 -76 -172 0
-688 -166 -106 -190 0
-688 -166 334 442 550 0
-688 -172 5 0
-688 -172 143 0
-688 -172 -82 0
-688 -172 -88 0
-688 -172 -94 0
-688 -172 -100 0
-688 -172 -40 -160 0
-688 -172 -76 -178 0
-688 -172 -106 -196 0
-688 -172 340 448 556 0
-688 -4 -166 -136 0
-688 -4 -172 -142 0
-693 202 0
-693 -178 0
-693 -166 11 0
-693 -166 137 0
-693 -166 -88 0
-693 -166 -94 0
-693 -166 -100 0
-693 -166 -46 -154 0
-693 -166 -76 -172 0
-693 -166 -82 -172 0
-693 -166 -106 -190 0
-693 -166 -112 -190 0
-693 -166 352 460 568 0
-693 -172 11 0
-693 -172 143 0
-693 -172 -88 0
-693 -172 -94 0
-693 -172 -100 0
-693 -172 -46 -160 0
-693 -172 -76 -178 0
-693 -172 -82 -178 0
-693 -172 -106 -196 0
-693 -172 -112 -196 0
-693 -172 358 466 574 0
-693 -10 -166 -136 0
-693 -10 -172 -142 0
-698 202 0
-698 -178 0
-698 -166 17 0
-698 -166 137 0
-698 -166 -76 0
-698 -166 -94 0
-698 -166 -100 0
-698 -166 -52 -154 0
-698 -166 -82 -172 0
-698 -166 -88 -172 0
-698 -166 -106 -190 0
-698 -166 -112 -190 0
-698 -166 -118 -190 0
-698 -166 370 478 586 0
-698 -172 17 0
-698 -172 143 0
-698 -172 -76 0
-698 -172 -94 0
-698 -172 -100 0
-698 -172 -52 -160 0
-698 -172 -82 -178 0
-698 -172 -88 -178 0
-698 -172 -106 -196 0
-698 -172 -112 -196 0
-698 -172 -118 -196 0
-698 -172 376 484 592 0
-698 -16 -166 -136 0
-698 -16 -172 -142 0
-703 202 0
-703 -178 0
-703 -166 23 0
-703 -166 137 0
-703 -166 -76 0
-703 -166 -82 0
-703 -166 -100 0
-703 -166 -58 -154 0
-703 -166 -88 -172 0
-703 -166 -94 -172 0
-703 -166 -112 -190 0
-703 -166 -118 -190 0
-703 -166 -124 -190 0
-703 -166 388 496 604 0
-703 -172 23 0
-703 -172 143 0
-703 -172 -76 0
-703 -172 -82 0
-703 -172 -100 0
-703 -172 -58 -160 0
-703 -172 -88 -178 0
-703 -172 -94 -178 0
-703 -172 -112 -196 0
-703 -172 -118 -196 0
-703 -172 -124 -196 0
-703 -172 394 502 610 0
-703 -22 -166 -136 0
-703 -22 -172 -142 0
-708 202 0
-708 -178 0
-708 -166 29 0
-708 -166 137 0
-708 -166 -76 0
-708 -166 -82 0
-708 -166 -88 0
-708 -166 -64 -154 0
-708 -166 -94 -172 0
-708 -166 -100 -172 0
-708 -166 -118 -190 0
-708 -166 -124 -190 0
-708 -166 406 514 622 0
-708 -172 29 0
-708 -172 143 0
-708 -172 -76 0
-708 -172 -82 0
-708 -172 -88 0
-708 -172 -64 -160 0
-708 -172 -94 -178 0
-708 -172 -100 -178 0
-708 -172 -118 -196 0
-708 -172 -124 -196 0
-708 -172 412 520 628 0
-708 -28 -166 -136 0
-708 -28 -172 -142 0
-713 202 0
-713 -178 0
-713 -166 35 0
-713 -166 137 0
-713 -166 -76 0
-713 -166 -82 0
-713 -166 -88 0
-713 -166 -94 0
-713 -166 -70 -154 0
-713 -166 -100 -172 0
-713 -166 -124 -190 0
-713 -166 424 532 640 0
-713 -172 35 0
-713 -172 143 0
-713 -172 -76 0
-713 -172 -82 0
-713 -172 -88 0
-713 -172 -94 0
-713 -172 -70 -160 0
-713 -172 -100 -178 0
-713 -172 -124 -196 0
-713 -172 430 538 646 0
-713 -34 -166 -136 0
-713 -34 -172 -142 0
-718 202 0
-718 -196 0
-718 -184 5 0
-718 -184 137 0
-718 -184 -112 0
-718 -184 -118 0
-718 -184 -124 0
-718 -184 -40 -154 0
-718 -184 -76 -172 0
-718 -184 -106 -190 0
-718 -184 334 442 550 0
-718 -190 5 0
-718 -190 143 0
-718 -190 -112 0
-718 -190 -118 0
-718 -190 -124 0
-718 -190 -40 -160 0
-718 -190 -76 -178 0
-718 -190 -106 -196 0
-718 -190 340 448 556 0
-718 -4 -184 -136 0
-718 -4 -190 -142 0
-723 202 0
-723 -196 0
-723 -184 11 0
-723 -184 137 0
-723 -184 -118 0
-723 -184 -124 0
-723 -184 -46 -154 0
-723 -184 -76 -172 0
-723 -184 -82 -172 0
-723 -184 -106 -190 0
-723 -184 -112 -190 0
-723 -184 352 460 568 0
-723 -190 11 0
-723 -190 143 0
-723 -190 -118 0
-723 -190 -124 0
-723 -190 -46 -160 0
-723 -190 -76 -178 0
-723 -190 -82 -178 0
-723 -190 -106 -196 0
-723 -190 -112 -196 0
-723 -190 358 466 574 0
-723 -10 -184 -136 0
-723 -10 -190 -142 0
-728 202 0
-728 -196 0
-728 -184 17 0
-728 -184 137 0
-728 -184 -124 0
-728 -184 -52 -154 0
-728 -184 -82 -172 0
-728 -184 -88 -172 0
-728 -184 -106 -190 0
-728 -184 -112 -190 0
-728 -184 -118 -190 0
-728 -184 370 478 586 0
-728 -190 17 0
-728 -190 143 0
-728 -190 -124 0
-728 -190 -52 -160 0
-728 -190 -82 -178 0
-728 -190 -88 -178 0
-728 -190 -106 -196 0
-728 -190 -112 -196 0
-728 -190 -118 -196 0
-728 -190 376 484 592 0
-728 -16 -184 -136 0
-728 -16 -190 -142 0
-733 202 0
-733 -196 0
-733 -184 23 0
-733 -184 137 0
-733 -184 -106 0
-733 -184 -58 -154 0
-733 -184 -88 -172 0
-733 -184 -94 -172 0
-733 -184 -112 -190 0
-733 -184 -118 -190 0
-733 -184 -124 -190 0
-733 -184 388 496 604 0
-733 -190 23 0
-733 -190 143 0
-733 -190 -106 0
-733 -190 -58 -160 0
-733 -190 -88 -178 0
-733 -190 -94 -178 0
-733 -190 -112 -196 0
-733 -190 -118 -196 0
-733 -190 -124 -196 0
-733 -190 394 502 610 0
-733 -22 -184 -136 0
-733 -22 -190 -142 0
-738 202 0
-738 -196 0
-738 -184 29 0
-738 -184 137 0
-738 -184 -106 0
-738 -184 -112 0
-738 -184 -64 -154 0
-738 -184 -94 -172 0
-738 -184 -100 -172 0
-738 -184 -118 -190 0
-738 -184 -124 -190 0
-738 -184 406 514 622 0
-738 -190 29 0
-738 -190 143 0
-738 -190 -106 0
-738 -190 -112 0
-738 -190 -64 -160 0
-738 -190 -94 -178 0
-738 -190 -100 -178 0
-738 -190 -118 -196 0
-738 -190 -124 -196 0
-738 -190 412 520 628 0
-738 -28 -184 -136 0
-738 -28 -190 -142 0
-743 202 0
-743 -196 0
-743 -184 35 0
-743 -184 137 0
-743 -184 -106 0
-743 -184 -112 0
-743 -184 -118 0
-743 -184 -70 -154 0
-743 -184 -100 -172 0
-743 -184 -124 -190 0
-743 -184 424 532 640 0
-743 -190 35 0
-743 -190 143 0
-743 -190 -106 0
-743 -190 -112 0
-743 -190 -118 0
-743 -190 -70 -160 0
-743 -190 -100 -178 0
-743 -190 -124 -196 0
-743 -190 430 538 646 0
-743 -34 -184 -136 0
-743 -34 -190 -142 0
-748 202 0
-748 5 0
-748 131 0
-748 -4 -130 0
-748 -40 -148 0
-748 -76 -166 0
-748 -106 -184 0
-753 202 0
-753 11 0
-753 131 0
-753 -10 -130 0
-753 -46 -148 0
-753 -76 -166 0
-753 -82 -166 0
-753 -106 -184 0
-753 -112 -184 0
-758 202 0
-758 17 0
-758 131 0
-758 -16 -130 0
-758 -52 -148 0
-758 -82 -166 0
-758 -88 -166 0
-758 -106 -184 0
-758 -112 -184 0
-758 -118 -184 0
-763 202 0
-763 23 0
-763 131 0
-763 -22 -130 0
-763 -58 -148 0
-763 -88 -166 0
-763 -94 -166 0
-763 -112 -184 0
-763 -118 -184 0
-763 -124 -184 0
-768 202 0
-768 29 0
-768 131 0
-768 -28 -130 0
-768 -64 -148 0
-768 -94 -166 0
-768 -100 -166 0
-768 -118 -184 0
-768 -124 -184 0
-773 202 0
-773 35 0
-773 131 0
-773 -34 -130 0
-773 -70 -148 0
-773 -100 -166 0
-773 -124 -184 0
-778 208 0
-778 -142 0
-778 -130 41 0
-778 -130 155 0
-778 -130 -10 0
-778 -130 -16 0
-778 -130 -22 0
-778 -130 -28 0
-778 -130 -34 0
-778 -130 -4 -136 0
-778 -130 -76 -172 0
-778 -130 -106 -190 0
-778 -130 226 442 550 0
-778 -136 41 0
-778 -136 161 0
-778 -136 -10 0
-778 -136 -16 0
-778 -136 -22 0
-778 -136 -28 0
-778 -136 -34 0
-778 -136 -4 -142 0
-778 -136 -76 -178 0
-778 -136 -106 -196 0
-778 -136 232 448 556 0
-778 -40 -130 -154 0
-778 -40 -136 -160 0
-783 208 0
-783 -142 0
-783 -130 47 0
-783 -130 155 0
-783 -130 -4 0
-783 -130 -16 0
-783 -130 -22 0
-783 -130 -28 0
-783 -130 -34 0
-783 -130 -10 -136 0
-783 -130 -76 -172 0
-783 -130 -82 -172 0
-783 -130 -106 -190 0
-783 -130 -112 -190 0
-783 -130 244 460 568 0
-783 -136 47 0
-783 -136 161 0
-783 -136 -4 0
-783 -136 -16 0
-783 -136 -22 0
-783 -136 -28 0
-783 -136 -34 0
-783 -136 -10 -142 0
-783 -136 -76 -178 0
-783 -136 -82 -178 0
-783 -136 -106 -196 0
-783 -136 -112 -196 0
-783 -136 250 466 574 0
-783 -46 -130 -154 0
-783 -46 -136 -160 0
-788 208 0
-788 -142 0
-788 -130 53 0
-788 -130 155 0
-788 -130 -4 0
-788 -130 -10 0
-788 -130 -22 0
-788 -130 -28 0
-788 -130 -34 0
-788 -130 -16 -136 0
-788 -130 -82 -172 0
-788 -130 -88 -172 0
-788 -130 -106 -190 0
-788 -130 -112 -190 0
-788 -130 -118 -190 0
-788 -130 262 478 586 0
-788 -136 53 0
-788 -136 161 0
-788 -136 -4 0
-788 -136 -10 0
-788 -136 -22 0
-788 -136 -28 0
-788 -136 -34 0
-788 -136 -16 -142 0
-788 -136 -82 -178 0
-788 -136 -88 -178 0
-788 -136 -106 -196 0
-788 -136 -112 -196 0
-788 -136 -118 -196 0
-788 -136 268 484 592 0
-788 -52 -130 -154 0
-788 -52 -136 -160 0
-793 208 0
-793 -142 0
-793 -130 59 0
-793 -130 155 0
-793 -130 -4 0
-793 -130 -10 0
-793 -130 -16 0
-793 -130 -28 0
-793 -130 -34 0
-793 -130 -22 -136 0
-793 -130 -88 -172 0
-793 -130 -94 -172 0
-793 -130 -112 -190 0
-793 -130 -118 -190 0
-793 -130 -124 -190 0
-793 -130 280 496 604 0
-793 -136 59 0
-793 -136 161 0
-793 -136 -4 0
-793 -136 -10 0
-793 -136 -16 0
-793 -136 -28 0
-793 -136 -34 0
-793 -136 -22 -142 0
-793 -136 -88 -178 0
-793 -136 -94 -178 0
-793 -136 -112 -196 0
-793 -136 -118 -196 0
-793 -136 -124 -196 0
-793 -136 286 502 610 0
-793 -58 -130 -154 0
-793 -58 -136 -160 0
-798 208 0
-798 -142 0
-798 -130 65 0
-798 -130 155 0
-798 -130 -4 0
-798 -130 -10 0
-798 -130 -16 0
-798 -130 -22 0
-798 -130 -34 0
-798 -130 -28 -136 0
-798 -130 -94 -172 0
-798 -130 -100 -172 0
-798 -130 -118 -190 0
-798 -130 -124 -190 0
-798 -130 298 514 622 0
-798 -136 65 0
-798 -136 161 0
-798 -136 -4 0
-798 -136 -10 0
-798 -136 -16 0
-798 -136 -22 0
-798 -136 -34 0
-798 -136 -28 -142 0
-798 -136 -94 -178 0
-798 -136 -100 -178 0
-798 -136 -118 -196 0
-798 -136 -124 -196 0
-798 -136 304 520 628 0
-798 -64 -130 -154 0
-798 -64 -136 -160 0
-803 208 0
-803 -142 0
-803 -130 71 0
-803 -130 155 0
-803 -130 -4 0
-803 -130 -10 0
-803 -130 -16 0
-803 -130 -22 0
-803 -130 -28 0
-803 -130 -34 -136 0
-803 -130 -100 -172 0
-803 -130 -124 -190 0
-803 -130 316 532 640 0
-803 -136 71 0
-803 -136 161 0
-803 -136 -4 0
-803 -136 -10 0
-803 -136 -16 0
-803 -136 -22 0
-803 -136 -28 0
-803 -136 -34 -142 0
-803 -136 -100 -178 0
-803 -136 -124 -196 0
-803 -136 322 538 646 0
-803 -70 -130 -154 0
-803 -70 -136 -160 0
-808 208 0
-808 -178 0
-808 -166 41 0
-808 -166 155 0
-808 -166 -82 0
-808 -166 -88 0
-808 -166 -94 0
-808 -166 -100 0
-808 -166 -4 -136 0
-808 -166 -76 -172 0
-808 -166 -106 -190 0
-808 -166 226 442 550 0
-808 -172 41 0
-808 -172 161 0
-808 -172 -82 0
-808 -172 -88 0
-808 -172 -94 0
-808 -172 -100 0
-808 -172 -4 -142 0
-808 -172 -76 -178 0
-808 -172 -106 -196 0
-808 -172 232 448 556 0
-808 -40 -166 -154 0
-808 -40 -172 -160 0
-813 208 0
-813 -178 0
-813 -166 47 0
-813 -166 155 0
-813 -166 -88 0
-813 -166 -94 0
-813 -166 -100 0
-813 -166 -10 -136 0
-813 -166 -76 -172 0
-813 -166 -82 -172 0
-813 -166 -106 -190 0
-813 -166 -112 -190 0
-813 -166 244 460 568 0
-813 -172 47 0
-813 -172 161 0
-813 -172 -88 0
-813 -172 -94 0
-813 -172 -100 0
-813 -172 -10 -142 0
-813 -172 -76 -178 0
-813 -172 -82 -178 0
-813 -172 -106 -196 0
-813 -172 -112 -196 0
-813 -172 250 466 574 0
-813 -46 -166 -154 0
-813 -46 -172 -160 0
-818 208 0
-818 -178 0
-818 -166 53 0
-818 -166 155 0
-818 -166 -76 0
-818 -166 -94 0
-818 -166 -100 0
-818 -166 -16 -136 0
-818 -166 -82 -172 0
-818 -166 -88 -172 0
-818 -166 -106 -190 0
-818 -166 -112 -190 0
-818 -166 -118 -190 0
-818 -166 262 478 586 0
-818 -172 53 0
-818 -172 161 0
-818 -172 -76 0
-818 -172 -94 0
-818 -172 -100 0
-818 -172 -16 -142 0
-818 -172 -82 -178 0
-818 -172 -88 -178 0
-818 -172 -106 -196 0
-818 -172 -112 -196 0
-818 -172 -118 -196 0
-818 -172 268 484 592 0
-818 -52 -166 -154 0
-818 -52 -172 -160 0
-823 208 0
-823 -178 0
-823 -166 59 0
-823 -166 155 0
-823 -166 -76 0
-823 -166 -82 0
-823 -166 -100 0
-823 -166 -22 -136 0
-823 -166 -88 -172 0
-823 -166 -94 -172 0
-823 -166 -112 -190 0
-823 -166 -118 -190 0
-823 -166 -124 -190 0
-823 -166 280 496 604 0
-823 -172 59 0
-823 -172 161 0
-823 -172 -76 0
-823 -172 -82 0
-823 -172 -100 0
-823 -172 -22 -142 0
-823 -172 -88 -178 0
-823 -172 -94 -178 0
-823 -172 -112 -196 0
-823 -172 -118 -196 0
-823 -172 -124 -196 0
-823 -172 286 502 610 0
-823 -58 -166 -154 0
-823 -58 -172 -160 0
-828 208 0
-828 -178 0
-828 -166 65 0
-828 -166 155 0
-828 -166 -76 0
-828 -166 -82 0
-828 -166 -88 0
-828 -166 -28 -136 0
-828 -166 -94 -172 0
-828 -166 -100 -172 0
-828 -166 -118 -190 0
-828 -166 -124 -190 0
-828 -166 298 514 622 0
-828 -172 65 0
-828 -172 161 0
-828 -172 -76 0
-828 -172 -82 0
-828 -172 -88 0
-828 -172 -28 -142 0
-828 -172 -94 -178 0
-828 -172 -100 -178 0
-828 -172 -118 -196 0
-828 -172 -124 -196 0
-828 -172 304 520 628 0
-828 -64 -166 -154 0
-828 -64 -172 -160 0
-833 208 0
-833 -178 0
-833 -166 71 0
-833 -166 155 0
-833 -166 -76 0
-833 -166 -82 0
-833 -166 -88 0
-833 -166 -94 0
-833 -166 -34 -136 0
-833 -166 -100 -172 0
-833 -166 -124 -190 0
-833 -166 316 532 640 0
-833 -172 71 0
-833 -172 161 0
-833 -172 -76 0
-833 -172 -82 0
-833 -172 -88 0
-833 -172 -94 0
-833 -172 -34 -142 0
-833 -172 -100 -178 0
-833 -172 -124 -196 0
-833 -172 322 538 646 0
-833 -70 -166 -154 0
-833 -70 -172 -160 0
-838 208 0
-838 -196 0
-838 -184 41 0
-838 -184 155 0
-838 -184 -112 0
-838 -184 -118 0
-838 -184 -124 0
-838 -184 -4 -136 0
-838 -184 -76 -172 0
-838 -184 -106 -190 0
-838 -184 226 442 550 0
-838 -190 41 0
-838 -190 161 0
-838 -190 -112 0
-838 -190 -118 0
-838 -190 -124 0
-838 -190 -4 -142 0
-838 -190 -76 -178 0
-838 -190 -106 -196 0
-838 -190 232 448 556 0
-838 -40 -184 -154 0
-838 -40 -190 -160 0
-843 208 0
-843 -196 0
-843 -184 47 0
-843 -184 155 0
-843 -184 -118 0
-843 -184 -124 0
-843 -184 -10 -136 0
-843 -184 -76 -172 0
-843 -184 -82 -172 0
-843 -184 -106 -190 0
-843 -184 -112 -190 0
-843 -184 244 460 568 0
-843 -190 47 0
-843 -190 161 0
-843 -190 -118 0
-843 -190 -124 0
-843 -190 -10 -142 0
-843 -190 -76 -178 0
-843 -190 -82 -178 0
-843 -190 -106 -196 0
-843 -190 -112 -196 0
-843 -190 250 466 574 0
-843 -46 -184 -154 0
-843 -46 -190 -160 0
-848 208 0
-848 -196 0
-848 -184 53 0
-848 -184 155 0
-848 -184 -124 0
-848 -184 -16 -136 0
-848 -184 -82 -172 0
-848 -184 -88 -172 0
-848 -184 -106 -190 0
-848 -184 -112 -190 0
-848 -184 -118 -190 0
-848 -184 262 478 586 0
-848 -190 53 0
-848 -190 161 0
-848 -190 -124 0
-848 -190 -16 -142 0
-848 -190 -82 -178 0
-848 -190 -88 -178 0
-848 -190 -106 -196 0
-848 -190 -112 -196 0
-848 -190 -118 -196 0
-848 -190 268 484 592 0
-848 -52 -184 -154 0
-848 -52 -190 -160 0
-853 208 0
-853 -196 0
-853 -184 59 0
-853 -184 155 0
-853 -184 -106 0
-853 -184 -22 -136 0
-853 -184 -88 -172 0
-853 -184 -94 -172 0
-853 -184 -112 -190 0
-853 -184 -118 -190 0
-853 -184 -124 -190 0
-853 -184 280 496 604 0
-853 -190 59 0
-853 -190 161 0
-853 -190 -106 0
-853 -190 -22 -142 0
-853 -190 -88 -178 0
-853 -190 -94 -178 0
-853 -190 -112 -196 0
-853 -190 -118 -196 0
-853 -190 -124 -196 0
-853 -190 286 502 610 0
-853 -58 -184 -154 0
-853 -58 -190 -160 0
-858 208 0
-858 -196 0
-858 -184 65 0
-858 -184 155 0
-858 -184 -106 0
-858 -184 -112 0
-858 -184 -28 -136 0
-858 -184 -94 -172 0
-858 -184 -100 -172 0
-858 -184 -118 -190 0
-858 -184 -124 -190 0
-858 -184 298 514 622 0
-858 -190 65 0
-858 -190 161 0
-858 -190 -106 0
-858 -190 -112 0
-858 -190 -28 -142 0
-858 -190 -94 -178 0
-858 -190 -100 -178 0
-858 -190 -118 -196 0
-858 -190 -124 -196 0
-858 -190 304 520 628 0
-858 -64 -184 -154 0
-858 -64 -190 -160 0
-863 208 0
-863 -196 0
-863 -184 71 0
-863 -184 155 0
-863 -184 -106 0
-863 -184 -112 0
-863 -184 -118 0
-863 -184 -34 -136 0
-863 -184 -100 -172 0
-863 -184 -124 -190 0
-863 -184 316 532 640 0
-863 -190 71 0
-863 -190 161 0
-863 -190 -106 0
-863 -190 -112 0
-863 -190 -118 0
-863 -190 -34 -142 0
-863 -190 -100 -178 0
-863 -190 -124 -196 0
-863 -190 322 538 646 0
-863 -70 -184 -154 0
-863 -70 -190 -160 0
-868 208 0
-868 41 0
-868 149 0
-868 -40 -148 0
-868 -4 -130 0
-868 -76 -166 0
-868 -106 -184 0
-873 208 0
-873 47 0
-873 149 0
-873 -46 -148 0
-873 -10 -130 0
-873 -76 -166 0
-873 -82 -166 0
-873 -106 -184 0
-873 -112 -184 0
-878 208 0
-878 53 0
-878 149 0
-878 -52 -148 0
-878 -16 -130 0
-878 -82 -166 0
-878 -88 -166 0
-878 -106 -184 0
-878 -112 -184 0
-878 -118 -184 0
-883 208 0
-883 59 0
-883 149 0
-883 -58 -148 0
-883 -22 -130 0
-883 -88 -166 0
-883 -94 -166 0
-883 -112 -184 0
-883 -118 -184 0
-883 -124 -184 0
-888 208 0
-888 65 0
-888 149 0
-888 -64 -148 0
-888 -28 -130 0
-888 -94 -166 0
-888 -100 -166 0
-888 -118 -184 0
-888 -124 -184 0
-893 208 0
-893 71 0
-893 149 0
-893 -70 -148 0
-893 -34 -130 0
-893 -100 -166 0
-893 -124 -184 0
-898 214 0
-898 -142 0
-898 -130 77 0
-898 -130 173 0
-898 -130 -16 0
-898 -130 -22 0
-898 -130 -28 0
-898 -130 -34 0
-898 -130 -4 -136 0
-898 -130 -10 -136 0
-898 -130 -40 -154 0
-898 -130 -46 -154 0
-898 -130 -106 -190 0
-898 -130 -112 -190 0
-898 -130 226 334 550 244 352 568 0
-898 -136 77 0
-898 -136 179 0
-898 -136 -16 0
-898 -136 -22 0
-898 -136 -28 0
-898 -136 -34 0
-898 -136 -4 -142 0
-898 -136 -10 -142 0
-898 -136 -40 -160 0
-898 -136 -46 -160 0
-898 -136 -106 -196 0
-898 -136 -112 -196 0
-898 -136 232 340 556 250 358 574 0
-898 -76 -130 -172 0
-898 -76 -136 -178 0
-903 214 0
-903 -142 0
-903 -130 83 0
-903 -130 173 0
-903 -130 -4 0
-903 -130 -22 0
-903 -130 -28 0
-903 -130 -34 0
-903 -130 -10 -136 0
-903 -130 -16 -136 0
-903 -130 -46 -154 0
-903 -130 -52 -154 0
-903 -130 -106 -190 0
-903 -130 -112 -190 0
-903 -130 -118 -190 0
-903 -130 244 352 568 262 370 586 0
-903 -136 83 0
-903 -136 179 0
-903 -136 -4 0
-903 -136 -22 0
-903 -136 -28 0
-903 -136 -34 0
-903 -136 -10 -142 0
-903 -136 -16 -142 0
-903 -136 -46 -160 0
-903 -136 -52 -160 0
-903 -136 -106 -196 0
-903 -136 -112 -196 0
-903 -136 -118 -196 0
-903 -136 250 358 574 268 376 592 0
-903 -82 -130 -172 0
-903 -82 -136 -178 0
-908 214 0
-908 -142 0
-908 -130 89 0
-908 -130 173 0
-908 -130 -4 0
-908 -130 -10 0
-908 -130 -28 0
-908 -130 -34 0
-908 -130 -16 -136 0
-908 -130 -22 -136 0
-908 -130 -52 -154 0
-908 -130 -58 -154 0
-908 -130 -106 -190 0
-908 -130 -112 -190 0
-908 -130 -118 -190 0
-908 -130 -124 -190 0
-908 -130 262 370 586 280 388 604 0
-908 -136 89 0
-908 -136 179 0
-908 -136 -4 0
-908 -136 -10 0
-908 -136 -28 0
-908 -136 -34 0
-908 -136 -16 -142 0
-908 -136 -22 -142 0
-908 -136 -52 -160 0
-908 -136 -58 -160 0
-908 -136 -106 -196 0
-908 -136 -112 -196 0
-908 -136 -118 -196 0
-908 -136 -124 -196 0
-908 -136 268 376 592 286 394 610 0
-908 -88 -130 -172 0
-908 -88 -136 -178 0
-913 214 0
-913 -142 0
-913 -130 95 0
-913 -130 173 0
-913 -130 -4 0
-913 -130 -10 0
-913 -130 -16 0
-913 -130 -34 0
-913 -130 -22 -136 0
-913 -130 -28 -136 0
-913 -130 -58 -154 0
-913 -130 -64 -154 0
-913 -130 -112 -190 0
-913 -130 -118 -190 0
-913 -130 -124 -190 0
-913 -130 280 388 604 298 406 622 0
-913 -136 95 0
-913 -136 179 0
-913 -136 -4 0
-913 -136 -10 0
-913 -136 -16 0
-913 -136 -34 0
-913 -136 -22 -142 0
-913 -136 -28 -142 0
-913 -136 -58 -160 0
-913 -136 -64 -160 0
-913 -136 -112 -196 0
-913 -136 -118 -196 0
-913 -136 -124 -196 0
-913 -136 286 394 610 304 412 628 0
-913 -94 -130 -172 0
-913 -94 -136 -178 0
-918 214 0
-918 -142 0
-918 -130 101 0
-918 -130 173 0
-918 -130 -4 0
-918 -130 -10 0
-918 -130 -16 0
-918 -130 -22 0
-918 -130 -28 -136 0
-918 -130 -34 -136 0
-918 -130 -64 -154 0
-918 -130 -70 -154 0
-918 -130 -118 -190 0
-918 -130 -124 -190 0
-918 -130 298 406 622 316 424 640 0
-918 -136 101 0
-918 -136 179 0
-918 -136 -4 0
-918 -136 -10 0
-918 -136 -16 0
-918 -136 -22 0
-918 -136 -28 -142 0
-918 -136 -34 -142 0
-918 -136 -64 -160 0
-918 -136 -70 -160 0
-918 -136 -118 -196 0
-918 -136 -124 -196 0
-918 -136 304 412 628 322 430 646 0
-918 -100 -130 -172 0
-918 -100 -136 -178 0
-923 214 0
-923 -160 0
-923 -148 77 0
-923 -148 173 0
-923 -148 -52 0
-923 -148 -58 0
-923 -148 -64 0
-923 -148 -70 0
-923 -148 -4 -136 0
-923 -148 -10 -136 0
-923 -148 -40 -154 0
-923 -148 -46 -154 0
-923 -148 -106 -190 0
-923 -148 -112 -190 0
-923 -148 226 334 550 244 352 568 0
-923 -154 77 0
-923 -154 179 0
-923 -154 -52 0
-923 -154 -58 0
-923 -154 -64 0
-923 -154 -70 0
-923 -154 -4 -142 0
-923 -154 -10 -142 0
-923 -154 -40 -160 0
-923 -154 -46 -160 0
-923 -154 -106 -196 0
-923 -154 -112 -196 0
-923 -154 232 340 556 250 358 574 0
-923 -76 -148 -172 0
-923 -76 -154 -178 0
-928 214 0
-928 -160 0
-928 -148 83 0
-928 -148 173 0
-928 -148 -40 0
-928 -148 -58 0
-928 -148 -64 0
-928 -148 -70 0
-928 -148 -10 -136 0
-928 -148 -16 -136 0
-928 -148 -46 -154 0
-928 -148 -52 -154 0
-928 -148 -106 -190 0
-928 -148 -112 -190 0
-928 -148 -118 -190 0
-928 -148 244 352 568 262 370 586 0
-928 -154 83 0
-928 -154 179 0
-928 -154 -40 0
-928 -154 -58 0
-928 -154 -64 0
-928 -154 -70 0
-928 -154 -10 -142 0
-928 -154 -16 -142 0
-928 -154 -46 -160 0
-928 -154 -52 -160 0
-928 -154 -106 -196 0
-928 -154 -112 -196 0
-928 -154 -118 -196 0
-928 -154 250 358 574 268 376 592 0
-928 -82 -148 -172 0
-928 -82 -154 -178 0
-933 214 0
-933 -160 0
-933 -148 89 0
-933 -148 173 0
-933 -148 -40 0
-933 -148 -46 0
-933 -148 -64 0
-933 -148 -70 0
-933 -148 -16 -136 0
-933 -148 -22 -136 0
-933 -148 -52 -154 0
-933 -148 -58 -154 0
-933 -148 -106 -190 0
-933 -148 -112 -190 0
-933 -148 -118 -190 0
-933 -148 -124 -190 0
-933 -148 262 370 586 280 388 604 0
-933 -154 89 0
-933 -154 179 0
-933 -154 -40 0
-933 -154 -46 0
-933 -154 -64 0
-933 -154 -70 0
-933 -154 -16 -142 0
-933 -154 -22 -142 0
-933 -154 -52 -160 0
-933 -154 -58 -160 0
-933 -154 -106 -196 0
-933 -154 -112 -196 0
-933 -154 -118 -196 0
-933 -154 -124 -196 0
-933 -154 268 376 592 286 394 610 0
-933 -88 -148 -172 0
-933 -88 -154 -178 0
-938 214 0
-938 -160 0
-938 -148 95 0
-938 -148 173 0
-938 -148 -40 0
-938 -148 -46 0
-938 -148 -52 0
-938 -148 -70 0
-938 -148 -22 -136 0
-938 -148 -28 -136 0
-938 -148 -58 -154 0
-938 -148 -64 -154 0
-938 -148 -112 -190 0
-938 -148 -118 -190 0
-938 -148 -124 -190 0
-938 -148 280 388 604 298 406 622 0
-938 -154 95 0
-938 -154 179 0
-938 -154 -40 0
-938 -154 -46 0
-938 -154 -52 0
-938 -154 -70 0
-938 -154 -22 -142 0
-938 -154 -28 -142 0
-938 -154 -58 -160 0
-938 -154 -64 -160 0
-938 -154 -112 -196 0
-938 -154 -118 -196 0
-938 -154 -124 -196 0
-938 -154 286 394 610 304 412 628 0
-938 -94 -148 -172 0
-938 -94 -154 -178 0
-943 214 0
-943 -160 0
-943 -148 101 0
-943 -148 173 0
-943 -148 -40 0
-943 -148 -46 0
-943 -148 -52 0
-943 -148 -58 0
-943 -148 -28 -136 0
-943 -148 -34 -136 0
-943 -148 -64 -154 0
-943 -148 -70 -154 0
-943 -148 -118 -190 0
-943 -148 -124 -190 0
-943 -148 298 406 622 316 424 640 0
-943 -154 101 0
-943 -154 179 0
-943 -154 -40 0
-943 -154 -46 0
-943 -154 -52 0
-943 -154 -58 0
-943 -154 -28 -142 0
-943 -154 -34 -142 0
-943 -154 -64 -160 0
-943 -154 -70 -160 0
-943 -154 -118 -196 0
-943 -154 -124 -196 0
-943 -154 304 412 628 322 430 646 0
-943 -100 -148 -172 0
-943 -100 -154 -178 0
-948 214 0
-948 -196 0
-948 -184 77 0
-948 -184 173 0
-948 -184 -118 0
-948 -184 -124 0
-948 -184 -4 -136 0
-948 -184 -10 -136 0
-948 -184 -40 -154 0
-948 -184 -46 -154 0
-948 -184 -106 -190 0
-948 -184 -112 -190 0
-948 -184 226 334 550 244 352 568 0
-948 -190 77 0
-948 -190 179 0
-948 -190 -118 0
-948 -190 -124 0
-948 -190 -4 -142 0
-948 -190 -10 -142 0
-948 -190 -40 -160 0
-948 -190 -46 -160 0
-948 -190 -106 -196 0
-948 -190 -112 -196 0
-948 -190 232 340 556 250 358 574 0
-948 -76 -184 -172 0
-948 -76 -190 -178 0
-953 214 0
-953 -196 0
-953 -184 83 0
-953 -184 173 0
-953 -184 -124 0
-953 -184 -10 -136 0
-953 -184 -16 -136 0
-953 -184 -46 -154 0
-953 -184 -52 -154 0
-953 -184 -106 -190 0
-953 -184 -112 -190 0
-953 -184 -118 -190 0
-953 -184 244 352 568 262 370 586 0
-953 -190 83 0
-953 -190 179 0
-953 -190 -124 0
-953 -190 -10 -142 0
-953 -190 -16 -142 0
-953 -190 -46 -160 0
-953 -190 -52 -160 0
-953 -190 -106 -196 0
-953 -190 -112 -196 0
-953 -190 -118 -196 0
-953 -190 250 358 574 268 376 592 0
-953 -82 -184 -172 0
-953 -82 -190 -178 0
-958 214 0
-958 -196 0
-958 -184 89 0
-958 -184 173 0
-958 -184 -16 -136 0
-958 -184 -22 -136 0
-958 -184 -52 -154 0
-958 -184 -58 -154 0
-958 -184 -106 -190 0
-958 -184 -112 -190 0
-958 -184 -118 -190 0
-958 -184 -124 -190 0
-958 -184 262 370 586 280 388 604 0
-958 -190 89 0
-958 -190 179 0
-958 -190 -16 -142 0
-958 -190 -22 -142 0
-958 -190 -52 -160 0
-958 -190 -58 -160 0
-958 -190 -106 -196 0
-958 -190 -112 -196 0
-958 -190 -118 -196 0
-958 -190 -124 -196 0
-958 -190 268 376 592 286 394 610 0
-958 -88 -184 -172 0
-958 -88 -190 -178 0
-963 214 0
-963 -196 0
-963 -184 95 0
-963 -184 173 0
-963 -184 -106 0
-963 -184 -22 -136 0
-963 -184 -28 -136 0
-963 -184 -58 -154 0
-963 -184 -64 -154 0
-963 -184 -112 -190 0
-963 -184 -118 -190 0
-963 -184 -124 -190 0
-963 -184 280 388 604 298 406 622 0
-963 -190 95 0
-963 -190 179 0
-963 -190 -106 0
-963 -190 -22 -142 0
-963 -190 -28 -142 0
-963 -190 -58 -160 0
-963 -190 -64 -160 0
-963 -190 -112 -196 0
-963 -190 -118 -196 0
-963 -190 -124 -196 0
-963 -190 286 394 610 304 412 628 0
-963 -94 -184 -172 0
-963 -94 -190 -178 0
-968 214 0
-968 -196 0
-968 -184 101 0
-968 -184 173 0
-968 -184 -106 0
-968 -184 -112 0
-968 -184 -28 -136 0
-968 -184 -34 -136 0
-968 -184 -64 -154 0
-968 -184 -70 -154 0
-968 -184 -118 -190 0
-968 -184 -124 -190 0
-968 -184 298 406 622 316 424 640 0
-968 -190 101 0
-968 -190 179 0
-968 -190 -106 0
-968 -190 -112 0
-968 -190 -28 -142 0
-968 -190 -34 -142 0
-968 -190 -64 -160 0
-968 -190 -70 -160 0
-968 -190 -118 -196 0
-968 -190 -124 -196 0
-968 -190 304 412 628 322 430 646 0
-968 -100 -184 -172 0
-968 -100 -190 -178 0
-973 214 0
-973 77 0
-973 167 0
-973 -76 -166 0
-973 -4 -130 0
-973 -10 -130 0
-973 -40 -148 0
-973 -46 -148 0
-973 -106 -184 0
-973 -112 -184 0
-978 214 0
-978 83 0
-978 167 0
-978 -82 -166 0
-978 -10 -130 0
-978 -16 -130 0
-978 -46 -148 0
-978 -52 -148 0
-978 -106 -184 0
-978 -112 -184 0
-978 -118 -184 0
-983 214 0
-983 89 0
-983 167 0
-983 -88 -166 0
-983 -16 -130 0
-983 -22 -130 0
-983 -52 -148 0
-983 -58 -148 0
-983 -106 -184 0
-983 -112 -184 0
-983 -118 -184 0
-983 -124 -184 0
-988 214 0
-988 95 0
-988 167 0
-988 -94 -166 0
-988 -22 -130 0
-988 -28 -130 0
-988 -58 -148 0
-988 -64 -148 0
-988 -112 -184 0
-988 -118 -184 0
-988 -124 -184 0
-993 214 0
-993 101 0
-993 167 0
-993 -100 -166 0
-993 -28 -130 0
-993 -34 -130 0
-993 -64 -148 0
-993 -70 -148 0
-993 -118 -184 0
-993 -124 -184 0
-998 220 0
-998 -142 0
-998 -130 107 0
-998 -130 191 0
-998 -130 -22 0
-998 -130 -28 0
-998 -130 -34 0
-998 -130 -4 -136 0
-998 -130 -10 -136 0
-998 -130 -16 -136 0
-998 -130 -40 -154 0
-998 -130 -46 -154 0
-998 -130 -52 -154 0
-998 -130 -76 -172 0
-998 -130 -82 -172 0
-998 -130 -88 -172 0
-998 -130 226 334 442 244 352 460 0
-998 -130 226 334 442 262 370 478 0
-998 -130 244 352 460 262 370 478 0
-998 -136 107 0
-998 -136 197 0
-998 -136 -22 0
-998 -136 -28 0
-998 -136 -34 0
-998 -136 -4 -142 0
-998 -136 -10 -142 0
-998 -136 -16 -142 0
-998 -136 -40 -160 0
-998 -136 -46 -160 0
-998 -136 -52 -160 0
-998 -136 -76 -178 0
-998 -136 -82 -178 0
-998 -136 -88 -178 0
-998 -136 232 340 448 250 358 466 0
-998 -136 232 340 448 268 376 484 0
-998 -136 250 358 466 268 376 484 0
-998 -106 -130 -190 0
-998 -106 -136 -196 0
-1003 220 0
-1003 -142 0
-1003 -130 113 0
-1003 -130 191 0
-1003 -130 -4 0
-1003 -130 -28 0
-1003 -130 -34 0
-1003 -130 -10 -136 0
-1003 -130 -16 -136 0
-1003 -130 -22 -136 0
-1003 -130 -46 -154 0
-1003 -130 -52 -154 0
-1003 -130 -58 -154 0
-1003 -130 -76 -172 0
-1003 -130 -82 -172 0
-1003 -130 -88 -172 0
-1003 -130 -94 -172 0
-1003 -130 244 352 460 262 370 478 0
-1003 -130 244 352 460 280 388 496 0
-1003 -130 262 370 478 280 388 496 0
-1003 -136 113 0
-1003 -136 197 0
-1003 -136 -4 0
-1003 -136 -28 0
-1003 -136 -34 0
-1003 -136 -10 -142 0
-1003 -136 -16 -142 0
-1003 -136 -22 -142 0
-1003 -136 -46 -160 0
-1003 -136 -52 -160 0
-1003 -136 -58 -160 0
-1003 -136 -76 -178 0
-1003 -136 -82 -178 0
-1003 -136 -88 -178 0
-1003 -136 -94 -178 0
-1003 -136 250 358 466 268 376 484 0
-1003 -136 250 358 466 286 394 502 0
-1003 -136 268 376 484 286 394 502 0
-1003 -112 -130 -190 0
-1003 -112 -136 -196 0
-1008 220 0
-1008 -142 0
-1008 -130 119 0
-1008 -130 191 0
-1008 -130 -4 0
-1008 -130 -10 0
-1008 -130 -34 0
-1008 -130 -16 -136 0
-1008 -130 -22 -136 0
-1008 -130 -28 -136 0
-1008 -130 -52 -154 0
-1008 -130 -58 -154 0
-1008 -130 -64 -154 0
-1008 -130 -82 -172 0
-1008 -130 -88 -172 0
-1008 -130 -94 -172 0
-1008 -130 -100 -172 0
-1008 -130 262 370 478 280 388 496 0
-1008 -130 262 370 478 298 406 514 0
-1008 -130 280 388 496 298 406 514 0
-1008 -136 119 0
-1008 -136 197 0
-1008 -136 -4 0
-1008 -136 -10 0
-1008 -136 -34 0
-1008 -136 -16 -142 0
-1008 -136 -22 -142 0
-1008 -136 -28 -142 0
-1008 -136 -52 -160 0
-1008 -136 -58 -160 0
-1008 -136 -64 -160 0
-1008 -136 -82 -178 0
-1008 -136 -88 -178 0
-1008 -136 -94 -178 0
-1008 -136 -100 -178 0
-1008 -136 268 376 484 286 394 502 0
-1008 -136 268 376 484 304 412 520 0
-1008 -136 286 394 502 304 412 520 0
-1008 -118 -130 -190 0
-1008 -118 -136 -196 0
-1013 220 0
-1013 -142 0
-1013 -130 125 0
-1013 -130 191 0
-1013 -130 -4 0
-1013 -130 -10 0
-1013 -130 -16 0
-1013 -130 -22 -136 0
-1013 -130 -28 -136 0
-1013 -130 -34 -136 0
-1013 -130 -58 -154 0
-1013 -130 -64 -154 0
-1013 -130 -70 -154 0
-1013 -130 -88 -172 0
-1013 -130 -94 -172 0
-1013 -130 -100 -172 0
-1013 -130 280 388 496 298 406 514 0
-1013 -130 280 388 496 316 424 532 0
-1013 -130 298 406 514 316 424 532 0
-1013 -136 125 0
-1013 -136 197 0
-1013 -136 -4 0
-1013 -136 -10 0
-1013 -136 -16 0
-1013 -136 -22 -142 0
-1013 -136 -28 -142 0
-1013 -136 -34 -142 0
-1013 -136 -58 -160 0
-1013 -136 -64 -160 0
-1013 -136 -70 -160 0
-1013 -136 -88 -178 0
-1013 -136 -94 -178 0
-1013 -136 -100 -178 0
-1013 -136 286 394 502 304 412 520 0
-1013 -136 286 394 502 322 430 538 0
-1013 -136 304 412 520 322 430 538 0
-1013 -124 -130 -190 0
-1013 -124 -136 -196 0
-1018 220 0
-1018 -160 0
-1018 -148 107 0
-1018 -148 191 0
-1018 -148 -58 0
-1018 -148 -64 0
-1018 -148 -70 0
-1018 -148 -4 -136 0
-1018 -148 -10 -136 0
-1018 -148 -16 -136 0
-1018 -148 -40 -154 0
-1018 -148 -46 -154 0
-1018 -148 -52 -154 0
-1018 -148 -76 -172 0
-1018 -148 -82 -172 0
-1018 -148 -88 -172 0
-1018 -148 226 334 442 244 352 460 0
-1018 -148 226 334 442 262 370 478 0
-1018 -148 244 352 460 262 370 478 0
-1018 -154 107 0
-1018 -154 197 0
-1018 -154 -58 0
-1018 -154 -64 0
-1018 -154 -70 0
-1018 -154 -4 -142 0
-1018 -154 -10 -142 0
-1018 -154 -16 -142 0
-1018 -154 -40 -160 0
-1018 -154 -46 -160 0
-1018 -154 -52 -160 0
-1018 -154 -76 -178 0
-1018 -154 -82 -178 0
-1018 -154 -88 -178 0
-1018 -154 232 340 448 250 358 466 0
-1018 -154 232 340 448 268 376 484 0
-1018 -154 250 358 466 268 376 484 0
-1018 -106 -148 -190 0
-1018 -106 -154 -196 0
-1023 220 0
-1023 -160 0
-1023 -148 113 0
-1023 -148 191 0
-1023 -148 -40 0
-1023 -148 -64 0
-1023 -148 -70 0
-1023 -148 -10 -136 0
-1023 -148 -16 -136 0
-1023 -148 -22 -136 0
-1023 -148 -46 -154 0
-1023 -148 -52 -154 0
-1023 -148 -58 -154 0
-1023 -148 -76 -172 0
-1023 -148 -82 -172 0
-1023 -148 -88 -172 0
-1023 -148 -94 -172 0
-1023 -148 244 352 460 262 370 478 0
-1023 -148 244 352 460 280 388 496 0
-1023 -148 262 370 478 280 388 496 0
-1023 -154 113 0
-1023 -154 197 0
-1023 -154 -40 0
-1023 -154 -64 0
-1023 -154 -70 0
-1023 -154 -10 -142 0
-1023 -154 -16 -142 0
-1023 -154 -22 -142 0
-1023 -154 -46 -160 0
-1023 -154 -52 -160 0
-1023 -154 -58 -160 0
-1023 -154 -76 -178 0
-1023 -154 -82 -178 0
-1023 -154 -88 -178 0
-1023 -154 -94 -178 0
-1023 -154 250 358 466 268 376 484 0
-1023 -154 250 358 466 286 394 502 0
-1023 -154 268 376 484 286 394 502 0
-1023 -112 -148 -190 0
-1023 -112 -154 -196 0
-1028 220 0
-1028 -160 0
-1028 -148 119 0
-1028 -148 191 0
-1028 -148 -40 0
-1028 -148 -46 0
-1028 -148 -70 0
-1028 -148 -16 -136 0
-1028 -148 -22 -136 0
-1028 -148 -28 -136 0
-1028 -148 -52 -154 0
-1028 -148 -58 -154 0
-1028 -148 -64 -154 0
-1028 -148 -82 -172 0
-1028 -148 -88 -172 0
-1028 -148 -94 -172 0
-1028 -148 -100 -172 0
-1028 -148 262 370 478 280 388 496 0
-1028 -148 262 370 478 298 406 514 0
-1028 -148 280 388 496 298 406 514 0
-1028 -154 119 0
-1028 -154 197 0
-1028 -154 -40 0
-1028 -154 -46 0
-1028 -154 -70 0
-1028 -154 -16 -142 0
-1028 -154 -22 -142 0
-1028 -154 -28 -142 0
-1028 -154 -52 -160 0
-1028 -154 -58 -160 0
-1028 -154 -64 -160 0
-1028 -154 -82 -178 0
-1028 -154 -88 -178 0
-1028 -154 -94 -178 0
-1028 -154 -100 -178 0
-1028 -154 268 376 484 286 394 502 0
-1028 -154 268 376 484 304 412 520 0
-1028 -154 286 394 502 304 412 520 0
-1028 -118 -148 -190 0
-1028 -118 -154 -196 0
-1033 220 0
-1033 -160 0
-1033 -148 125 0
-1033 -148 191 0
-1033 -148 -40 0
-1033 -148 -46 0
-1033 -148 -52 0
-1033 -148 -22 -136 0
-1033 -148 -28 -136 0
-1033 -148 -34 -136 0
-1033 -148 -58 -154 0
-1033 -148 -64 -154 0
-1033 -148 -70 -154 0
-1033 -148 -88 -172 0
-1033 -148 -94 -172 0
-1033 -148 -100 -172 0
-1033 -148 280 388 496 298 406 514 0
-1033 -148 280 388 496 316 424 532 0
-1033 -148 298 406 514 316 424 532 0
-1033 -154 125 0
-1033 -154 197 0
-1033 -154 -40 0
-1033 -154 -46 0
-1033 -154 -52 0
-1033 -154 -22 -142 0
-1033 -154 -28 -142 0
-1033 -154 -34 -142 0
-1033 -154 -58 -160 0
-1033 -154 -64 -160 0
-1033 -154 -70 -160 0
-1033 -154 -88 -178 0
-1033 -154 -94 -178 0
-1033 -154 -100 -178 0
-1033 -154 286 394 502 304 412 520 0
-1033 -154 286 394 502 322 430 538 0
-1033 -154 304 412 520 322 430 538 0
-1033 -124 -148 -190 0
-1033 -124 -154 -196 0
-1038 220 0
-1038 -178 0
-1038 -166 107 0
-1038 -166 191 0
-1038 -166 -94 0
-1038 -166 -100 0
-1038 -166 -4 -136 0
-1038 -166 -10 -136 0
-1038 -166 -16 -136 0
-1038 -166 -40 -154 0
-1038 -166 -46 -154 0
-1038 -166 -52 -154 0
-1038 -166 -76 -172 0
-1038 -166 -82 -172 0
-1038 -166 -88 -172 0
-1038 -166 226 334 442 244 352 460 0
-1038 -166 226 334 442 262 370 478 0
-1038 -166 244 352 460 262 370 478 0
-1038 -172 107 0
-1038 -172 197 0
-1038 -172 -94 0
-1038 -172 -100 0
-1038 -172 -4 -142 0
-1038 -172 -10 -142 0
-1038 -172 -16 -142 0
-1038 -172 -40 -160 0
-1038 -172 -46 -160 0
-1038 -172 -52 -160 0
-1038 -172 -76 -178 0
-1038 -172 -82 -178 0
-1038 -172 -88 -178 0
-1038 -172 232 340 448 250 358 466 0
-1038 -172 232 340 448 268 376 484 0
-1038 -172 250 358 466 268 376 484 0
-1038 -106 -166 -190 0
-1038 -106 -172 -196 0
-1043 220 0
-1043 -178 0
-1043 -166 113 0
-1043 -166 191 0
-1043 -166 -100 0
-1043 -166 -10 -136 0
-1043 -166 -16 -136 0
-1043 -166 -22 -136 0
-1043 -166 -46 -154 0
-1043 -166 -52 -154 0
-1043 -166 -58 -154 0
-1043 -166 -76 -172 0
-1043 -166 -82 -172 0
-1043 -166 -88 -172 0
-1043 -166 -94 -172 0
-1043 -166 244 352 460 262 370 478 0
-1043 -166 244 352 460 280 388 496 0
-1043 -166 262 370 478 280 388 496 0
-1043 -172 113 0
-1043 -172 197 0
-1043 -172 -100 0
-1043 -172 -10 -142 0
-1043 -172 -16 -142 0
-1043 -172 -22 -142 0
-1043 -172 -46 -160 0
-1043 -172 -52 -160 0
-1043 -172 -58 -160 0
-1043 -172 -76 -178 0
-1043 -172 -82 -178 0
-1043 -172 -88 -178 0
-1043 -172 -94 -178 0
-1043 -172 250 358 466 268 376 484 0
-1043 -172 250 358 466 286 394 502 0
-1043 -172 268 376 484 286 394 502 0
-1043 -112 -166 -190 0
-1043 -112 -172 -196 0
-1048 220 0
-1048 -178 0
-1048 -166 119 0
-1048 -166 191 0
-1048 -166 -76 0
-1048 -166 -16 -136 0
-1048 -166 -22 -136 0
-1048 -166 -28 -136 0
-1048 -166 -52 -154 0
-1048 -166 -58 -154 0
-1048 -166 -64 -154 0
-1048 -166 -82 -172 0
-1048 -166 -88 -172 0
-1048 -166 -94 -172 0
-1048 -166 -100 -172 0
-1048 -166 262 370 478 280 388 496 0
-1048 -166 262 370 478 298 406 514 0
-1048 -166 280 388 496 298 406 514 0
-1048 -172 119 0
-1048 -172 197 0
-1048 -172 -76 0
-1048 -172 -16 -142 0
-1048 -172 -22 -142 0
-1048 -172 -28 -142 0
-1048 -172 -52 -160 0
-1048 -172 -58 -160 0
-1048 -172 -64 -160 0
-1048 -172 -82 -178 0
-1048 -172 -88 -178 0
-1048 -172 -94 -178 0
-1048 -172 -100 -178 0
-1048 -172 268 376 484 286 394 502 0
-1048 -172 268 376 484 304 412 520 0
-1048 -172 286 394 502 304 412 520 0
-1048 -118 -166 -190 0
-1048 -118 -172 -196 0
-1053 220 0
-1053 -178 0
-1053 -166 125 0
-1053 -166 191 0
-1053 -166 -76 0
-1053 -166 -82 0
-1053 -166 -22 -136 0
-1053 -166 -28 -136 0
-1053 -166 -34 -136 0
-1053 -166 -58 -154 0
-1053 -166 -64 -154 0
-1053 -166 -70 -154 0
-1053 -166 -88 -172 0
-1053 -166 -94 -172 0
-1053 -166 -100 -172 0
-1053 -166 280 388 496 298 406 514 0
-1053 -166 280 388 496 316 424 532 0
-1053 -166 298 406 514 316 424 532 0
-1053 -172 125 0
-1053 -172 197 0
-1053 -172 -76 0
-1053 -172 -82 0
-1053 -172 -22 -142 0
-1053 -172 -28 -142 0
-1053 -172 -34 -142 0
-1053 -172 -58 -160 0
-1053 -172 -64 -160 0
-1053 -172 -70 -160 0
-1053 -172 -88 -178 0
-1053 -172 -94 -178 0
-1053 -172 -100 -178 0
-1053 -172 286 394 502 304 412 520 0
-1053 -172 286 394 502 322 430 538 0
-1053 -172 304 412 520 322 430 538 0
-1053 -124 -166 -190 0
-1053 -124 -172 -196 0
-1058 220 0
-1058 107 0
-1058 185 0
-1058 -106 -184 0
-1058 -4 -130 0
-1058 -10 -130 0
-1058 -16 -130 0
-1058 -40 -148 0
-1058 -46 -148 0
-1058 -52 -148 0
-1058 -76 -166 0
-1058 -82 -166 0
-1058 -88 -166 0
-1063 220 0
-1063 113 0
-1063 185 0
-1063 -112 -184 0
-1063 -10 -130 0
-1063 -16 -130 0
-1063 -22 -130 0
-1063 -46 -148 0
-1063 -52 -148 0
-1063 -58 -148 0
-1063 -76 -166 0
-1063 -82 -166 0
-1063 -88 -166 0
-1063 -94 -166 0
-1068 220 0
-1068 119 0
-1068 185 0
-1068 -118 -184 0
-1068 -16 -130 0
-1068 -22 -130 0
-1068 -28 -130 0
-1068 -52 -148 0
-1068 -58 -148 0
-1068 -64 -148 0
-1068 -82 -166 0
-1068 -88 -166 0
-1068 -94 -166 0
-1068 -100 -166 0
-1073 220 0
-1073 125 0
-1073 185 0
-1073 -124 -184 0
-1073 -22 -130 0
-1073 -28 -130 0
-1073 -34 -130 0
-1073 -58 -148 0
-1073 -64 -148 0
-1073 -70 -148 0
-1073 -88 -166 0
-1073 -94 -166 0
-1073 -100 -166 0
659 664 669 674 679 684 689 694 699 704 709 714 719 724 729 734 739 744 749 754 759 764 769 774 779 784 789 794 799 804 809 814 819 824 829 834 839 844 849 854 859 864 869 874 879 884 889 894 899 904 909 914 919 924 929 934 939 944 949 954 959 964 969 974 979 984 989 994 999 1004 1009 1014 1019 1024 1029 1034 1039 1044 1049 1054 1059 1064 1069 1074 0
-659 -664 0
-659 -669 0
-659 -674 0
-659 -679 0
-659 -684 0
-659 -689 0
-659 -694 0
-659 -699 0
-659 -704 0
-659 -709 0
-659 -714 0
-659 -719 0
-659 -724 0
-659 -729 0
-659 -734 0
-659 -739 0
-659 -744 0
-659 -749 0
-659 -754 0
-659 -759 0
-659 -764 0
-659 -769 0
-659 -774 0
-659 -779 0
-659 -784 0
-659 -789 0
-659 -794 0
-659 -799 0
-659 -804 0
-659 -809 0
-659 -814 0
-659 -819 0
-659 -824 0
-659 -829 0
-659 -834 0
-659 -839 0
-659 -844 0
-659 -849 0
-659 -854 0
-659 -859 0
-659 -864 0
-659 -869 0
-659 -874 0
-659 -879 0
-659 -884 0
-659 -889 0
-659 -894 0
-659 -899 0
-659 -904 0
-659 -909 0
-659 -914 0
-659 -919 0
-659 -924 0
-659 -929 0
-659 -934 0
-659 -939 0
-659 -944 0
-659 -949 0
-659 -954 0
-659 -959 0
-659 -964 0
-659 -969 0
-659 -974 0
-659 -979 0
-659 -984 0
-659 -989 0
-659 -994 0
-659 -999 0
-659 -1004 0
-659 -1009 0
-659 -1014 0
-659 -1019 0
-659 -1024 0
-659 -1029 0
-659 -1034 0
-659 -1039 0
-659 -1044 0
-659 -1049 0
-659 -1054 0
-659 -1059 0
-659 -1064 0
-659 -1069 0
-659 -1074 0
-664 -669 0
-664 -674 0
-664 -679 0
-664 -684 0
-664 -689 0
-664 -694 0
-664 -699 0
-664 -704 0
-664 -709 0
-664 -714 0
-664 -719 0
-664 -724 0
-664 -729 0
-664 -734 0
-664 -739 0
-664 -744 0
-664 -749 0
-664 -754 0
-664 -759 0
-664 -764 0
-664 -769 0
-664 -774 0
-664 -779 0
-664 -784 0
-664 -789 0
-664 -794 0
-664 -799 0
-664 -804 0
-664 -809 0
-664 -814 0
-664 -819 0
-664 -824 0
-664 -829 0
-664 -834 0
-664 -839 0
-664 -844 0
-664 -849 0
-664 -854 0
-664 -859 0
-664 -864 0
-664 -869 0
-664 -874 0
-664 -879 0
-664 -884 0
-664 -889 0
-664 -894 0
-664 -899 0
-664 -904 0
-664 -909 0
-664 -914 0
-664 -919 0
-664 -924 0
-664 -929 0
-664 -934 0
-664 -939 0
-664 -944 0
-664 -949 0
-664 -954 0
-664 -959 0
-664 -964 0
-664 -969 0
-664 -974 0
-664 -979 0
-664 -984 0
-664 -989 0
-664 -994 0
-664 -999 0
-664 -1004 0
-664 -1009 0
-664 -1014 0
-664 -1019 0
-664 -1024 0
-664 -1029 0
-664 -1034 0
-664 -1039 0
-664 -1044 0
-664 -1049 0
-664 -1054 0
-664 -1059 0
-664 -1064 0
-664 -1069 0
-664 -1074 0
-669 -674 0
-669 -679 0
-669 -684 0
-669 -689 0
-669 -694 0
-669 -699 0
-669 -704 0
-669 -709 0
-669 -714 0
-669 -719 0
-669 -724 0
-669 -729 0
-669 -734 0
-669 -739 0
-669 -744 0
-669 -749 0
-669 -754 0
-669 -759 0
-669 -764 0
-669 -769 0
-669 -774 0
-669 -779 0
-669 -784 0
-669 -789 0
-669 -794 0
-669 -799 0
-669 -804 0
-669 -809 0
-669 -814 0
-669 -819 0
-669 -824 0
-669 -829 0
-669 -834 0
-669 -839 0
-669 -844 0
-669 -849 0
-669 -854 0
-669 -859 0
-669 -864 0
-669 -869 0
-669 -874 0
-669 -879 0
-669 -884 0
-669 -889 0
-669 -894 0
-669 -899 0
-669 -904 0
-669 -909 0
-669 -914 0
-669 -919 0
-669 -924 0
-669 -929 0
-669 -934 0
-669 -939 0
-669 -944 0
-669 -949 0
-669 -954 0
-669 -959 0
-669 -964 0
-669 -969 0
-669 -974 0
-669 -979 0
-669 -984 0
-669 -989 0
-669 -994 0
-669 -999 0
-669 -1004 0
-669 -1009 0
-669 -1014 0
-669 -1019 0
-669 -1024 0
-669 -1029 0
-669 -1034 0
-669 -1039 0
-669 -1044 0
-669 -1049 0
-669 -1054 0
-669 -1059 0
-669 -1064 0
-669 -1069 0
-669 -1074 0
-674 -679 0
-674 -684 0
-674 -689 0
-674 -694 0
-674 -699 0
-674 -704 0
-674 -709 0
-674 -714 0
-674 -719 0
-674 -724 0
-674 -729 0
-674 -734 0
-674 -739 0
-674 -744 0
-674 -749 0
-674 -754 0
-674 -759 0
-674 -764 0
-674 -769 0
-674 -774 0
-674 -779 0
-674 -784 0
-674 -789 0
-674 -794 0
-674 -799 0
-674 -804 0
-674 -809 0
-674 -814 0
-674 -819 0
-674 -824 0
-674 -829 0
-674 -834 0
-674 -839 0
-674 -844 0
-674 -849 0
-674 -854 0
-674 -859 0
-674 -864 0
-674 -869 0
-674 -874 0
-674 -879 0
-674 -884 0
-674 -889 0
-674 -894 0
-674 -899 0
-674 -904 0
-674 -909 0
-674 -914 0
-674 -919 0
-674 -924 0
-674 -929 0
-674 -934 0
-674 -939 0
-674 -944 0
-674 -949 0
-674 -954 0
-674 -959 0
-674 -964 0
-674 -969 0
-674 -974 0
-674 -979 0
-674 -984 0
-674 -989 0
-674 -994 0
-674 -999 0
-674 -1004 0
-674 -1009 0
-674 -1014 0
-674 -1019 0
-674 -1024 0
-674 -1029 0
-674 -1034 0
-674 -1039 0
-674 -1044 0
-674 -1049 0
-674 -1054 0
-674 -1059 0
-674 -1064 0
-674 -1069 0
-674 -1074 0
-679 -684 0
-679 -689 0
-679 -694 0
-679 -699 0
-679 -704 0
-679 -709 0
-679 -714 0
-679 -719 0
-679 -724 0
-679 -729 0
-679 -734 0
-679 -739 0
-679 -744 0
-679 -749 0
-679 -754 0
-679 -759 0
-679 -764 0
-679 -769 0
-679 -774 0
-679 -779 0
-679 -784 0
-679 -789 0
-679 -794 0
-679 -799 0
-679 -804 0
-679 -809 0
-679 -814 0
-679 -819 0
-679 -824 0
-679 -829 0
-679 -834 0
-679 -839 0
-679 -844 0
-679 -849 0
-679 -854 0
-679 -859 0
-679 -864 0
-679 -869 0
-679 -874 0
-679 -879 0
-679 -884 0
-679 -889 0
-679 -894 0
-679 -899 0
-679 -904 0
-679 -909 0
-679 -914 0
-679 -919 0
-679 -924 0
-679 -929 0
-679 -934 0
-679 -939 0
-679 -944 0
-679 -949 0
-679 -954 0
-679 -959 0
-679 -964 0
-679 -969 0
-679 -974 0
-679 -979 0
-679 -984 0
-679 -989 0
-679 -994 0
-679 -999 0
-679 -1004 0
-679 -1009 0
-679 -1014 0
-679 -1019 0
-679 -1024 0
-679 -1029 0
-679 -1034 0
-679 -1039 0
-679 -1044 0
-679 -1049 0
-679 -1054 0
-679 -1059 0
-679 -1064 0
-679 -1069 0
-679 -1074 0
-684 -689 0
-684 -694 0
-684 -699 0
-684 -704 0
-684 -709 0
-684 -714 0
-684 -719 0
-684 -724 0
-684 -729 0
-684 -734 0
-684 -739 0
-684 -744 0
-684 -749 0
-684 -754 0
-684 -759 0
-684 -764 0
-684 -769 0
-684 -774 0
-684 -779 0
-684 -784 0
-684 -789 0
-684 -794 0
-684 -799 0
-684 -804 0
-684 -809 0
-684 -814 0
-684 -819 0
-684 -824 0
-684 -829 0
-684 -834 0
-684 -839 0
-684 -844 0
-684 -849 0
-684 -854 0
-684 -859 0
-684 -864 0
-684 -869 0
-684 -874 0
-684 -879 0
-684 -884 0
-684 -889 0
-684 -894 0
-684 -899 0
-684 -904 0
-684 -909 0
-684 -914 0
-684 -919 0
-684 -924 0
-684 -929 0
-684 -934 0
-684 -939 0
-684 -944 0
-684 -949 0
-684 -954 0
-684 -959 0
-684 -964 0
-684 -969 0
-684 -974 0
-684 -979 0
-684 -984 0
-684 -989 0
-684 -994 0
-684 -999 0
-684 -1004 0
-684 -1009 0
-684 -1014 0
-684 -1019 0
-684 -1024 0
-684 -1029 0
-684 -1034 0
-684 -1039 0
-684 -1044 0
-684 -1049 0
-684 -1054 0
-684 -1059 0
-684 -1064 0
-684 -1069 0
-684 -1074 0
-689 -694 0
-689 -699 0
-689 -704 0
-689 -709 0
-689 -714 0
-689 -719 0
-689 -724 0
-689 -729 0
-689 -734 0
-689 -739 0
-689 -744 0
-689 -749 0
-689 -754 0
-689 -759 0
-689 -764 0
-689 -769 0
-689 -774 0
-689 -779 0
-689 -784 0
-689 -789 0
-689 -794 0
-689 -799 0
-689 -804 0
-689 -809 0
-689 -814 0
-689 -819 0
-689 -824 0
-689 -829 0
-689 -834 0
-689 -839 0
-689 -844 0
-689 -849 0
-689 -854 0
-689 -859 0
-689 -864 0
-689 -869 0
-689 -874 0
-689 -879 0
-689 -884 0
-689 -889 0
-689 -894 0
-689 -899 0
-689 -904 0
-689 -909 0
-689 -914 0
-689 -919 0
-689 -924 0
-689 -929 0
-689 -934 0
-689 -939 0
-689 -944 0
-689 -949 0
-689 -954 0
-689 -959 0
-689 -964 0
-689 -969 0
-689 -974 0
-689 -979 0
-689 -984 0
-689 -989 0
-689 -994 0
-689 -999 0
-689 -1004 0
-689 -1009 0
-689 -1014 0
-689 -1019 0
-689 -1024 0
-689 -1029 0
-689 -1034 0
-689 -1039 0
-689 -1044 0
-689 -1049 0
-689 -1054 0
-689 -1059 0
-689 -1064 0
-689 -1069 0
-689 -1074 0
-694 -699 0
-694 -704 0
-694 -709 0
-694 -714 0
-694 -719 0
-694 -724 0
-694 -729 0
-694 -734 0
-694 -739 0
-694 -744 0
-694 -749 0
-694 -754 0
-694 -759 0
-694 -764 0
-694 -769 0
-694 -774 0
-694 -779 0
-694 -784 0
-694 -789 0
-694 -794 0
-694 -799 0
-694 -804 0
-694 -809 0
-694 -814 0
-694 -819 0
-694 -824 0
-694 -829 0
-694 -834 0
-694 -839 0
-694 -844 0
-694 -849 0
-694 -854 0
-694 -859 0
-694 -864 0
-694 -869 0
-694 -874 0
-694 -879 0
-694 -884 0
-694 -889 0
-694 -894 0
-694 -899 0
-694 -904 0
-694 -909 0
-694 -914 0
-694 -919 0
-694 -924 0
-694 -929 0
-694 -934 0
-694 -939 0
-694 -944 0
-694 -949 0
-694 -954 0
-694 -959 0
-694 -964 0
-694 -969 0
-694 -974 0
-694 -979 0
-694 -984 0
-694 -989 0
-694 -994 0
-694 -999 0
-694 -1004 0
-694 -1009 0
-694 -1014 0
-694 -1019 0
-694 -1024 0
-694 -1029 0
-694 -1034 0
-694 -1039 0
-694 -1044 0
-694 -1049 0
-694 -1054 0
-694 -1059 0
-694 -1064 0
-694 -1069 0
-694 -1074 0
-699 -704 0
-699 -709 0
-699 -714 0
-699 -719 0
-699 -724 0
-699 -729 0
-699 -734 0
-699 -739 0
-699 -744 0
-699 -749 0
-699 -754 0
-699 -759 0
-699 -764 0
-699 -769 0
-699 -774 0
-699 -779 0
-699 -784 0
-699 -789 0
-699 -794 0
-699 -799 0
-699 -804 0
-699 -809 0
-699 -814 0
-699 -819 0
-699 -824 0
-699 -829 0
-699 -834 0
-699 -839 0
-699 -844 0
-699 -849 0
-699 -854 0
-699 -859 0
-699 -864 0
-699 -869 0
-699 -874 0
-699 -879 0
-699 -884 0
-699 -889 0
-699 -894 0
-699 -899 0
-699 -904 0
-699 -909 0
-699 -914 0
-699 -919 0
-699 -924 0
-699 -929 0
-699 -934 0
-699 -939 0
-699 -944 0
-699 -949 0
-699 -954 0
-699 -959 0
-699 -964 0
-699 -969 0
-699 -974 0
-699 -979 0
-699 -984 0
-699 -989 0
-699 -994 0
-699 -999 0
-699 -1004 0
-699 -1009 0
-699 -1014 0
-699 -1019 0
-699 -1024 0
-699 -1029 0
-699 -1034 0
-699 -1039 0
-699 -1044 0
-699 -1049 0
-699 -1054 0
-699 -1059 0
-699 -1064 0
-699 -1069 0
-699 -1074 0
-704 -709 0
-704 -714 0
-704 -719 0
-704 -724 0
-704 -729 0
-704 -734 0
-704 -739 0
-704 -744 0
-704 -749 0
-704 -754 0
-704 -759 0
-704 -764 0
-704 -769 0
-704 -774 0
-704 -779 0
-704 -784 0
-704 -789 0
-704 -794 0
-704 -799 0
-704 -804 0
-704 -809 0
-704 -814 0
-704 -819 0
-704 -824 0
-704 -829 0
-704 -834 0
-704 -839 0
-704 -844 0
-704 -849 0
-704 -854 0
-704 -859 0
-704 -864 0
-704 -869 0
-704 -874 0
-704 -879 0
-704 -884 0
-704 -889 0
-704 -894 0
-704 -899 0
-704 -904 0
-704 -909 0
-704 -914 0
-704 -919 0
-704 -924 0
-704 -929 0
-704 -934 0
-704 -939 0
-704 -944 0
-704 -949 0
-704 -954 0
-704 -959 0
-704 -964 0
-704 -969 0
-704 -974 0
-704 -979 0
-704 -984 0
-704 -989 0
-704 -994 0
-704 -999 0
-704 -1004 0
-704 -1009 0
-704 -1014 0
-704 -1019 0
-704 -1024 0
-704 -1029 0
-704 -1034 0
-704 -1039 0
-704 -1044 0
-704 -1049 0
-704 -1054 0
-704 -1059 0
-704 -1064 0
-704 -1069 0
-704 -1074 0
-709 -714 0
-709 -719 0
-709 -724 0
-709 -729 0
-709 -734 0
-709 -739 0
-709 -744 0
-709 -749 0
-709 -754 0
-709 -759 0
-709 -764 0
-709 -769 0
-709 -774 0
-709 -779 0
-709 -784 0
-709 -789 0
-709 -794 0
-709 -799 0
-709 -804 0
-709 -809 0
-709 -814 0
-709 -819 0
-709 -824 0
-709 -829 0
-709 -834 0
-709 -839 0
-709 -844 0
-709 -849 0
-709 -854 0
-709 -859 0
-709 -864 0
-709 -869 0
-709 -874 0
-709 -879 0
-709 -884 0
-709 -889 0
-709 -894 0
-709 -899 0
-709 -904 0
-709 -909 0
-709 -914 0
-709 -919 0
-709 -924 0
-709 -929 0
-709 -934 0
-709 -939 0
-709 -944 0
-709 -949 0
-709 -954 0
-709 -959 0
-709 -964 0
-709 -969 0
-709 -974 0
-709 -979 0
-709 -984 0
-709 -989 0
-709 -994 0
-709 -999 0
-709 -1004 0
-709 -1009 0
-709 -1014 0
-709 -1019 0
-709 -1024 0
-709 -1029 0
-709 -1034 0
-709 -1039 0
-709 -1044 0
-709 -1049 0
-709 -1054 0
-709 -1059 0
-709 -1064 0
-709 -1069 0
-709 -1074 0
-714 -719 0
-714 -724 0
-714 -729 0
-714 -734 0
-714 -739 0
-714 -744 0
-714 -749 0
-714 -754 0
-714 -759 0
-714 -764 0
-714 -769 0
-714 -774 0
-714 -779 0
-714 -784 0
-714 -789 0
-714 -794 0
-714 -799 0
-714 -804 0
-714 -809 0
-714 -814 0
-714 -819 0
-714 -824 0
-714 -829 0
-714 -834 0
-714 -839 0
-714 -844 0
-714 -849 0
-714 -854 0
-714 -859 0
-714 -864 0
-714 -869 0
-714 -874 0
-714 -879 0
-714 -884 0
-714 -889 0
-714 -894 0
-714 -899 0
-714 -904 0
-714 -909 0
-714 -914 0
-714 -919 0
-714 -924 0
-714 -929 0
-714 -934 0
-714 -939 0
-714 -944 0
-714 -949 0
-714 -954 0
-714 -959 0
-714 -964 0
-714 -969 0
-714 -974 0
-714 -979 0
-714 -984 0
-714 -989 0
-714 -994 0
-714 -999 0
-714 -1004 0
-714 -1009 0
-714 -1014 0
-714 -1019 0
-714 -1024 0
-714 -1029 0
-714 -1034 0
-714 -1039 0
-714 -1044 0
-714 -1049 0
-714 -1054 0
-714 -1059 0
-714 -1064 0
-714 -1069 0
-714 -1074 0
-719 -724 0
-719 -729 0
-719 -734 0
-719 -739 0
-719 -744 0
-719 -749 0
-719 -754 0
-719 -759 0
-719 -764 0
-719 -769 0
-719 -774 0
-719 -779 0
-719 -784 0
-719 -789 0
-719 -794 0
-719 -799 0
-719 -804 0
-719 -809 0
-719 -814 0
-719 -819 0
-719 -824 0
-719 -829 0
-719 -834 0
-719 -839 0
-719 -844 0
-719 -849 0
-719 -854 0
-719 -859 0
-719 -864 0
-719 -869 0
-719 -874 0
-719 -879 0
-719 -884 0
-719 -889 0
-719 -894 0
-719 -899 0
-719 -904 0
-719 -909 0
-719 -914 0
-719 -919 0
-719 -924 0
-719 -929 0
-719 -934 0
-719 -939 0
-719 -944 0
-719 -949 0
-719 -954 0
-719 -959 0
-719 -964 0
-719 -969 0
-719 -974 0
-719 -979 0
-719 -984 0
-719 -989 0
-719 -994 0
-719 -999 0
-719 -1004 0
-719 -1009 0
-719 -1014 0
-719 -1019 0
-719 -1024 0
-719 -1029 0
-719 -1034 0
-719 -1039 0
-719 -1044 0
-719 -1049 0
-719 -1054 0
-719 -1059 0
-719 -1064 0
-719 -1069 0
-719 -1074 0
-724 -729 0
-724 -734 0
-724 -739 0
-724 -744 0
-724 -749 0
-724 -754 0
-724 -759 0
-724 -764 0
-724 -769 0
-724 -774 0
-724 -779 0
-724 -784 0
-724 -789 0
-724 -794 0
-724 -799 0
-724 -804 0
-724 -809 0
-724 -814 0
-724 -819 0
-724 -824 0
-724 -829 0
-724 -834 0
-724 -839 0
-724 -844 0
-724 -849 0
-724 -854 0
-724 -859 0
-724 -864 0
-724 -869 0
-724 -874 0
-724 -879 0
-724 -884 0
-724 -889 0
-724 -894 0
-724 -899 0
-724 -904 0
-724 -909 0
-724 -914 0
-724 -919 0
-724 -924 0
-724 -929 0
-724 -934 0
-724 -939 0
-724 -944 0
-724 -949 0
-724 -954 0
-724 -959 0
-724 -964 0
-724 -969 0
-724 -974 0
-724 -979 0
-724 -984 0
-724 -989 0
-724 -994 0
-724 -999 0
-724 -1004 0
-724 -1009 0
-724 -1014 0
-724 -1019 0
-724 -1024 0
-724 -1029 0
-724 -1034 0
-724 -1039 0
-724 -1044 0
-724 -1049 0
-724 -1054 0
-724 -1059 0
-724 -1064 0
-724 -1069 0
-724 -1074 0
-729 -734 0
-729 -739 0
-729 -744 0
-729 -749 0
-729 -754 0
-729 -759 0
-729 -764 0
-729 -769 0
-729 -774 0
-729 -779 0
-729 -784 0
-729 -789 0
-729 -794 0
-729 -799 0
-729 -804 0
-729 -809 0
-729 -814 0
-729 -819 0
-729 -824 0
-729 -829 0
-729 -834 0
-729 -839 0
-729 -844 0
-729 -849 0
-729 -854 0
-729 -859 0
-729 -864 0
-729 -869 0
-729 -874 0
-729 -879 0
-729 -884 0
-729 -889 0
-729 -894 0
-729 -899 0
-729 -904 0
-729 -909 0
-729 -914 0
-729 -919 0
-729 -924 0
-729 -929 0
-729 -934 0
-729 -939 0
-729 -944 0
-729 -949 0
-729 -954 0
-729 -959 0
-729 -964 0
-729 -969 0
-729 -974 0
-729 -979 0
-729 -984 0
-729 -989 0
-729 -994 0
-729 -999 0
-729 -1004 0
-729 -1009 0
-729 -1014 0
-729 -1019 0
-729 -1024 0
-729 -1029 0
-729 -1034 0
-729 -1039 0
-729 -1044 0
-729 -1049 0
-729 -1054 0
-729 -1059 0
-729 -1064 0
-729 -1069 0
-729 -1074 0
-734 -739 0
-734 -744 0
-734 -749 0
-734 -754 0
-734 -759 0
-734 -764 0
-734 -769 0
-734 -774 0
-734 -779 0
-734 -784 0
-734 -789 0
-734 -794 0
-734 -799 0
-734 -804 0
-734 -809 0
-734 -814 0
-734 -819 0
-734 -824 0
-734 -829 0
-734 -834 0
-734 -839 0
-734 -844 0
-734 -849 0
-734 -854 0
-734 -859 0
-734 -864 0
-734 -869 0
-734 -874 0
-734 -879 0
-734 -884 0
-734 -889 0
-734 -894 0
-734 -899 0
-734 -904 0
-734 -909 0
-734 -914 0
-734 -919 0
-734 -924 0
-734 -929 0
-734 -934 0
-734 -939 0
-734 -944 0
-734 -949 0
-734 -954 0
-734 -959 0
-734 -964 0
-734 -969 0
-734 -974 0
-734 -979 0
-734 -984 0
-734 -989 0
-734 -994 0
-734 -999 0
-734 -1004 0
-734 -1009 0
-734 -1014 0
-734 -1019 0
-734 -1024 0
-734 -1029 0
-734 -1034 0
-734 -1039 0
-734 -1044 0
-734 -1049 0
-734 -1054 0
-734 -1059 0
-734 -1064 0
-734 -1069 0
-734 -1074 0
-739 -744 0
-739 -749 0
-739 -754 0
-739 -759 0
-739 -764 0
-739 -769 0
-739 -774 0
-739 -779 0
-739 -784 0
-739 -789 0
-739 -794 0
-739 -799 0
-739 -804 0
-739 -809 0
-739 -814 0
-739 -819 0
-739 -824 0
-739 -829 0
-739 -834 0
-739 -839 0
-739 -844 0
-739 -849 0
-739 -854 0
-739 -859 0
-739 -864 0
-739 -869 0
-739 -874 0
-739 -879 0
-739 -884 0
-739 -889 0
-739 -894 0
-739 -899 0
-739 -904 0
-739 -909 0
-739 -914 0
-739 -919 0
-739 -924 0
-739 -929 0
-739 -934 0
-739 -939 0
-739 -944 0
-739 -949 0
-739 -954 0
-739 -959 0
-739 -964 0
-739 -969 0
-739 -974 0
-739 -979 0
-739 -984 0
-739 -989 0
-739 -994 0
-739 -999 0
-739 -1004 0
-739 -1009 0
-739 -1014 0
-739 -1019 0
-739 -1024 0
-739 -1029 0
-739 -1034 0
-739 -1039 0
-739 -1044 0
-739 -1049 0
-739 -1054 0
-739 -1059 0
-739 -1064 0
-739 -1069 0
-739 -1074 0
-744 -749 0
-744 -754 0
-744 -759 0
-744 -764 0
-744 -769 0
-744 -774 0
-744 -779 0
-744 -784 0
-744 -789 0
-744 -794 0
-744 -799 0
-744 -804 0
-744 -809 0
-744 -814 0
-744 -819 0
-744 -824 0
-744 -829 0
-744 -834 0
-744 -839 0
-744 -844 0
-744 -849 0
-744 -854 0
-744 -859 0
-744 -864 0
-744 -869 0
-744 -874 0
-744 -879 0
-744 -884 0
-744 -889 0
-744 -894 0
-744 -899 0
-744 -904 0
-744 -909 0
-744 -914 0
-744 -919 0
-744 -924 0
-744 -929 0
-744 -934 0
-744 -939 0
-744 -944 0
-744 -949 0
-744 -954 0
-744 -959 0
-744 -964 0
-744 -969 0
-744 -974 0
-744 -979 0
-744 -984 0
-744 -989 0
-744 -994 0
-744 -999 0
-744 -1004 0
-744 -1009 0
-744 -1014 0
-744 -1019 0
-744 -1024 0
-744 -1029 0
-744 -1034 0
-744 -1039 0
-744 -1044 0
-744 -1049 0
-744 -1054 0
-744 -1059 0
-744 -1064 0
-744 -1069 0
-744 -1074 0
-749 -754 0
-749 -759 0
-749 -764 0
-749 -769 0
-749 -774 0
-749 -779 0
-749 -784 0
-749 -789 0
-749 -794 0
-749 -799 0
-749 -804 0
-749 -809 0
-749 -814 0
-749 -819 0
-749 -824 0
-749 -829 0
-749 -834 0
-749 -839 0
-749 -844 0
-749 -849 0
-749 -854 0
-749 -859 0
-749 -864 0
-749 -869 0
-749 -874 0
-749 -879 0
-749 -884 0
-749 -889 0
-749 -894 0
-749 -899 0
-749 -904 0
-749 -909 0
-749 -914 0
-749 -919 0
-749 -924 0
-749 -929 0
-749 -934 0
-749 -939 0
-749 -944 0
-749 -949 0
-749 -954 0
-749 -959 0
-749 -964 0
-749 -969 0
-749 -974 0
-749 -979 0
-749 -984 0
-749 -989 0
-749 -994 0
-749 -999 0
-749 -1004 0
-749 -1009 0
-749 -1014 0
-749 -1019 0
-749 -1024 0
-749 -1029 0
-749 -1034 0
-749 -1039 0
-749 -1044 0
-749 -1049 0
-749 -1054 0
-749 -1059 0
-749 -1064 0
-749 -1069 0
-749 -1074 0
-754 -759 0
-754 -764 0
-754 -769 0
-754 -774 0
-754 -779 0
-754 -784 0
-754 -789 0
-754 -794 0
-754 -799 0
-754 -804 0
-754 -809 0
-754 -814 0
-754 -819 0
-754 -824 0
-754 -829 0
-754 -834 0
-754 -839 0
-754 -844 0
-754 -849 0
-754 -854 0
-754 -859 0
-754 -864 0
-754 -869 0
-754 -874 0
-754 -879 0
-754 -884 0
-754 -889 0
-754 -894 0
-754 -899 0
-754 -904 0
-754 -909 0
-754 -914 0
-754 -919 0
-754 -924 0
-754 -929 0
-754 -934 0
-754 -939 0
-754 -944 0
-754 -949 0
-754 -954 0
-754 -959 0
-754 -964 0
-754 -969 0
-754 -974 0
-754 -979 0
-754 -984 0
-754 -989 0
-754 -994 0
-754 -999 0
-754 -1004 0
-754 -1009 0
-754 -1014 0
-754 -1019 0
-754 -1024 0
-754 -1029 0
-754 -1034 0
-754 -1039 0
-754 -1044 0
-754 -1049 0
-754 -1054 0
-754 -1059 0
-754 -1064 0
-754 -1069 0
-754 -1074 0
-759 -764 0
-759 -769 0
-759 -774 0
-759 -779 0
-759 -784 0
-759 -789 0
-759 -794 0
-759 -799 0
-759 -804 0
-759 -809 0
-759 -814 0
-759 -819 0
-759 -824 0
-759 -829 0
-759 -834 0
-759 -839 0
-759 -844 0
-759 -849 0
-759 -854 0
-759 -859 0
-759 -864 0
-759 -869 0
-759 -874 0
-759 -879 0
-759 -884 0
-759 -889 0
-759 -894 0
-759 -899 0
-759 -904 0
-759 -909 0
-759 -914 0
-759 -919 0
-759 -924 0
-759 -929 0
-759 -934 0
-759 -939 0
-759 -944 0
-759 -949 0
-759 -954 0
-759 -959 0
-759 -964 0
-759 -969 0
-759 -974 0
-759 -979 0
-759 -984 0
-759 -989 0
-759 -994 0
-759 -999 0
-759 -1004 0
-759 -1009 0
-759 -1014 0
-759 -1019 0
-759 -1024 0
-759 -1029 0
-759 -1034 0
-759 -1039 0
-759 -1044 0
-759 -1049 0
-759 -1054 0
-759 -1059 0
-759 -1064 0
-759 -1069 0
-759 -1074 0
-764 -769 0
-764 -774 0
-764 -779 0
-764 -784 0
-764 -789 0
-764 -794 0
-764 -799 0
-764 -804 0
-764 -809 0
-764 -814 0
-764 -819 0
-764 -824 0
-764 -829 0
-764 -834 0
-764 -839 0
-764 -844 0
-764 -849 0
-764 -854 0
-764 -859 0
-764 -864 0
-764 -869 0
-764 -874 0
-764 -879 0
-764 -884 0
-764 -889 0
-764 -894 0
-764 -899 0
-764 -904 0
-764 -909 0
-764 -914 0
-764 -919 0
-764 -924 0
-764 -929 0
-764 -934 0
-764 -939 0
-764 -944 0
-764 -949 0
-764 -954 0
-764 -959 0
-764 -964 0
-764 -969 0
-764 -974 0
-764 -979 0
-764 -984 0
-764 -989 0
-764 -994 0
-764 -999 0
-764 -1004 0
-764 -1009 0
-764 -1014 0
-764 -1019 0
-764 -1024 0
-764 -1029 0
-764 -1034 0
-764 -1039 0
-764 -1044 0
-764 -1049 0
-764 -1054 0
-764 -1059 0
-764 -1064 0
-764 -1069 0
-764 -1074 0
-769 -774 0
-769 -779 0
-769 -784 0
-769 -789 0
-769 -794 0
-769 -799 0
-769 -804 0
-769 -809 0
-769 -814 0
-769 -819 0
-769 -824 0
-769 -829 0
-769 -834 0
-769 -839 0
-769 -844 0
-769 -849 0
-769 -854 0
-769 -859 0
-769 -864 0
-769 -869 0
-769 -874 0
-769 -879 0
-769 -884 0
-769 -889 0
-769 -894 0
-769 -899 0
-769 -904 0
-769 -909 0
-769 -914 0
-769 -919 0
-769 -924 0
-769 -929 0
-769 -934 0
-769 -939 0
-769 -944 0
-769 -949 0
-769 -954 0
-769 -959 0
-769 -964 0
-769 -969 0
-769 -974 0
-769 -979 0
-769 -984 0
-769 -989 0
-769 -994 0
-769 -999 0
-769 -1004 0
-769 -1009 0
-769 -1014 0
-769 -1019 0
-769 -1024 0
-769 -1029 0
-769 -1034 0
-769 -1039 0
-769 -1044 0
-769 -1049 0
-769 -1054 0
-769 -1059 0
-769 -1064 0
-769 -1069 0
-769 -1074 0
-774 -779 0
-774 -784 0
-774 -789 0
-774 -794 0
-774 -799 0
-774 -804 0
-774 -809 0
-774 -814 0
-774 -819 0
-774 -824 0
-774 -829 0
-774 -834 0
-774 -839 0
-774 -844 0
-774 -849 0
-774 -854 0
-774 -859 0
-774 -864 0
-774 -869 0
-774 -874 0
-774 -879 0
-774 -884 0
-774 -889 0
-774 -894 0
-774 -899 0
-774 -904 0
-774 -909 0
-774 -914 0
-774 -919 0
-774 -924 0
-774 -929 0
-774 -934 0
-774 -939 0
-774 -944 0
-774 -949 0
-774 -954 0
-774 -959 0
-774 -964 0
-774 -969 0
-774 -974 0
-774 -979 0
-774 -984 0
-774 -989 0
-774 -994 0
-774 -999 0
-774 -1004 0
-774 -1009 0
-774 -1014 0
-774 -1019 0
-774 -1024 0
-774 -1029 0
-774 -1034 0
-774 -1039 0
-774 -1044 0
-774 -1049 0
-774 -1054 0
-774 -1059 0
-774 -1064 0
-774 -1069 0
-774 -1074 0
-779 -784 0
-779 -789 0
-779 -794 0
-779 -799 0
-779 -804 0
-779 -809 0
-779 -814 0
-779 -819 0
-779 -824 0
-779 -829 0
-779 -834 0
-779 -839 0
-779 -844 0
-779 -849 0
-779 -854 0
-779 -859 0
-779 -864 0
-779 -869 0
-779 -874 0
-779 -879 0
-779 -884 0
-779 -889 0
-779 -894 0
-779 -899 0
-779 -904 0
-779 -909 0
-779 -914 0
-779 -919 0
-779 -924 0
-779 -929 0
-779 -934 0
-779 -939 0
-779 -944 0
-779 -949 0
-779 -954 0
-779 -959 0
-779 -964 0
-779 -969 0
-779 -974 0
-779 -979 0
-779 -984 0
-779 -989 0
-779 -994 0
-779 -999 0
-779 -1004 0
-779 -1009 0
-779 -1014 0
-779 -1019 0
-779 -1024 0
-779 -1029 0
-779 -1034 0
-779 -1039 0
-779 -1044 0
-779 -1049 0
-779 -1054 0
-779 -1059 0
-779 -1064 0
-779 -1069 0
-779 -1074 0
-784 -789 0
-784 -794 0
-784 -799 0
-784 -804 0
-784 -809 0
-784 -814 0
-784 -819 0
-784 -824 0
-784 -829 0
-784 -834 0
-784 -839 0
-784 -844 0
-784 -849 0
-784 -854 0
-784 -859 0
-784 -864 0
-784 -869 0
-784 -874 0
-784 -879 0
-784 -884 0
-784 -889 0
-784 -894 0
-784 -899 0
-784 -904 0
-784 -909 0
-784 -914 0
-784 -919 0
-784 -924 0
-784 -929 0
-784 -934 0
-784 -939 0
-784 -944 0
-784 -949 0
-784 -954 0
-784 -959 0
-784 -964 0
-784 -969 0
-784 -974 0
-784 -979 0
-784 -984 0
-784 -989 0
-784 -994 0
-784 -999 0
-784 -1004 0
-784 -1009 0
-784 -1014 0
-784 -1019 0
-784 -1024 0
-784 -1029 0
-784 -1034 0
-784 -1039 0
-784 -1044 0
-784 -1049 0
-784 -1054 0
-784 -1059 0
-784 -1064 0
-784 -1069 0
-784 -1074 0
-789 -794 0
-789 -799 0
-789 -804 0
-789 -809 0
-789 -814 0
-789 -819 0
-789 -824 0
-789 -829 0
-789 -834 0
-789 -839 0
-789 -844 0
-789 -849 0
-789 -854 0
-789 -859 0
-789 -864 0
-789 -869 0
-789 -874 0
-789 -879 0
-789 -884 0
-789 -889 0
-789 -894 0
-789 -899 0
-789 -904 0
-789 -909 0
-789 -914 0
-789 -919 0
-789 -924 0
-789 -929 0
-789 -934 0
-789 -939 0
-789 -944 0
-789 -949 0
-789 -954 0
-789 -959 0
-789 -964 0
-789 -969 0
-789 -974 0
-789 -979 0
-789 -984 0
-789 -989 0
-789 -994 0
-789 -999 0
-789 -1004 0
-789 -1009 0
-789 -1014 0
-789 -1019 0
-789 -1024 0
-789 -1029 0
-789 -1034 0
-789 -1039 0
-789 -1044 0
-789 -1049 0
-789 -1054 0
-789 -1059 0
-789 -1064 0
-789 -1069 0
-789 -1074 0
-794 -799 0
-794 -804 0
-794 -809 0
-794 -814 0
-794 -819 0
-794 -824 0
-794 -829 0
-794 -834 0
-794 -839 0
-794 -844 0
-794 -849 0
-794 -854 0
-794 -859 0
-794 -864 0
-794 -869 0
-794 -874 0
-794 -879 0
-794 -884 0
-794 -889 0
-794 -894 0
-794 -899 0
-794 -904 0
-794 -909 0
-794 -914 0
-794 -919 0
-794 -924 0
-794 -929 0
-794 -934 0
-794 -939 0
-794 -944 0
-794 -949 0
-794 -954 0
-794 -959 0
-794 -964 0
-794 -969 0
-794 -974 0
-794 -979 0
-794 -984 0
-794 -989 0
-794 -994 0
-794 -999 0
-794 -1004 0
-794 -1009 0
-794 -1014 0
-794 -1019 0
-794 -1024 0
-794 -1029 0
-794 -1034 0
-794 -1039 0
-794 -1044 0
-794 -1049 0
-794 -1054 0
-794 -1059 0
-794 -1064 0
-794 -1069 0
-794 -1074 0
-799 -804 0
-799 -809 0
-799 -814 0
-799 -819 0
-799 -824 0
-799 -829 0
-799 -834 0
-799 -839 0
-799 -844 0
-799 -849 0
-799 -854 0
-799 -859 0
-799 -864 0
-799 -869 0
-799 -874 0
-799 -879 0
-799 -884 0
-799 -889 0
-799 -894 0
-799 -899 0
-799 -904 0
-799 -909 0
-799 -914 0
-799 -919 0
-799 -924 0
-799 -929 0
-799 -934 0
-799 -939 0
-799 -944 0
-799 -949 0
-799 -954 0
-799 -959 0
-799 -964 0
-799 -969 0
-799 -974 0
-799 -979 0
-799 -984 0
-799 -989 0
-799 -994 0
-799 -999 0
-799 -1004 0
-799 -1009 0
-799 -1014 0
-799 -1019 0
-799 -1024 0
-799 -1029 0
-799 -1034 0
-799 -1039 0
-799 -1044 0
-799 -1049 0
-799 -1054 0
-799 -1059 0
-799 -1064 0
-799 -1069 0
-799 -1074 0
-804 -809 0
-804 -814 0
-804 -819 0
-804 -824 0
-804 -829 0
-804 -834 0
-804 -839 0
-804 -844 0
-804 -849 0
-804 -854 0
-804 -859 0
-804 -864 0
-804 -869 0
-804 -874 0
-804 -879 0
-804 -884 0
-804 -889 0
-804 -894 0
-804 -899 0
-804 -904 0
-804 -909 0
-804 -914 0
-804 -919 0
-804 -924 0
-804 -929 0
-804 -934 0
-804 -939 0
-804 -944 0
-804 -949 0
-804 -954 0
-804 -959 0
-804 -964 0
-804 -969 0
-804 -974 0
-804 -979 0
-804 -984 0
-804 -989 0
-804 -994 0
-804 -999 0
-804 -1004 0
-804 -1009 0
-804 -1014 0
-804 -1019 0
-804 -1024 0
-804 -1029 0
-804 -1034 0
-804 -1039 0
-804 -1044 0
-804 -1049 0
-804 -1054 0
-804 -1059 0
-804 -1064 0
-804 -1069 0
-804 -1074 0
-809 -814 0
-809 -819 0
-809 -824 0
-809 -829 0
-809 -834 0
-809 -839 0
-809 -844 0
-809 -849 0
-809 -854 0
-809 -859 0
-809 -864 0
-809 -869 0
-809 -874 0
-809 -879 0
-809 -884 0
-809 -889 0
-809 -894 0
-809 -899 0
-809 -904 0
-809 -909 0
-809 -914 0
-809 -919 0
-809 -924 0
-809 -929 0
-809 -934 0
-809 -939 0
-809 -944 0
-809 -949 0
-809 -954 0
-809 -959 0
-809 -964 0
-809 -969 0
-809 -974 0
-809 -979 0
-809 -984 0
-809 -989 0
-809 -994 0
-809 -999 0
-809 -1004 0
-809 -1009 0
-809 -1014 0
-809 -1019 0
-809 -1024 0
-809 -1029 0
-809 -1034 0
-809 -1039 0
-809 -1044 0
-809 -1049 0
-809 -1054 0
-809 -1059 0
-809 -1064 0
-809 -1069 0
-809 -1074 0
-814 -819 0
-814 -824 0
-814 -829 0
-814 -834 0
-814 -839 0
-814 -844 0
-814 -849 0
-814 -854 0
-814 -859 0
-814 -864 0
-814 -869 0
-814 -874 0
-814 -879 0
-814 -884 0
-814 -889 0
-814 -894 0
-814 -899 0
-814 -904 0
-814 -909 0
-814 -914 0
-814 -919 0
-814 -924 0
-814 -929 0
-814 -934 0
-814 -939 0
-814 -944 0
-814 -949 0
-814 -954 0
-814 -959 0
-814 -964 0
-814 -969 0
-814 -974 0
-814 -979 0
-814 -984 0
-814 -989 0
-814 -994 0
-814 -999 0
-814 -1004 0
-814 -1009 0
-814 -1014 0
-814 -1019 0
-814 -1024 0
-814 -1029 0
-814 -1034 0
-814 -1039 0
-814 -1044 0
-814 -1049 0
-814 -1054 0
-814 -1059 0
-814 -1064 0
-814 -1069 0
-814 -1074 0
-819 -824 0
-819 -829 0
-819 -834 0
-819 -839 0
-819 -844 0
-819 -849 0
-819 -854 0
-819 -859 0
-819 -864 0
-819 -869 0
-819 -874 0
-819 -879 0
-819 -884 0
-819 -889 0
-819 -894 0
-819 -899 0
-819 -904 0
-819 -909 0
-819 -914 0
-819 -919 0
-819 -924 0
-819 -929 0
-819 -934 0
-819 -939 0
-819 -944 0
-819 -949 0
-819 -954 0
-819 -959 0
-819 -964 0
-819 -969 0
-819 -974 0
-819 -979 0
-819 -984 0
-819 -989 0
-819 -994 0
-819 -999 0
-819 -1004 0
-819 -1009 0
-819 -1014 0
-819 -1019 0
-819 -1024 0
-819 -1029 0
-819 -1034 0
-819 -1039 0
-819 -1044 0
-819 -1049 0
-819 -1054 0
-819 -1059 0
-819 -1064 0
-819 -1069 0
-819 -1074 0
-824 -829 0
-824 -834 0
-824 -839 0
-824 -844 0
-824 -849 0
-824 -854 0
-824 -859 0
-824 -864 0
-824 -869 0
-824 -874 0
-824 -879 0
-824 -884 0
-824 -889 0
-824 -894 0
-824 -899 0
-824 -904 0
-824 -909 0
-824 -914 0
-824 -919 0
-824 -924 0
-824 -929 0
-824 -934 0
-824 -939 0
-824 -944 0
-824 -949 0
-824 -954 0
-824 -959 0
-824 -964 0
-824 -969 0
-824 -974 0
-824 -979 0
-824 -984 0
-824 -989 0
-824 -994 0
-824 -999 0
-824 -1004 0
-824 -1009 0
-824 -1014 0
-824 -1019 0
-824 -1024 0
-824 -1029 0
-824 -1034 0
-824 -1039 0
-824 -1044 0
-824 -1049 0
-824 -1054 0
-824 -1059 0
-824 -1064 0
-824 -1069 0
-824 -1074 0
-829 -834 0
-829 -839 0
-829 -844 0
-829 -849 0
-829 -854 0
-829 -859 0
-829 -864 0
-829 -869 0
-829 -874 0
-829 -879 0
-829 -884 0
-829 -889 0
-829 -894 0
-829 -899 0
-829 -904 0
-829 -909 0
-829 -914 0
-829 -919 0
-829 -924 0
-829 -929 0
-829 -934 0
-829 -939 0
-829 -944 0
-829 -949 0
-829 -954 0
-829 -959 0
-829 -964 0
-829 -969 0
-829 -974 0
-829 -979 0
-829 -984 0
-829 -989 0
-829 -994 0
-829 -999 0
-829 -1004 0
-829 -1009 0
-829 -1014 0
-829 -1019 0
-829 -1024 0
-829 -1029 0
-829 -1034 0
-829 -1039 0
-829 -1044 0
-829 -1049 0
-829 -1054 0
-829 -1059 0
-829 -1064 0
-829 -1069 0
-829 -1074 0
-834 -839 0
-834 -844 0
-834 -849 0
-834 -854 0
-834 -859 0
-834 -864 0
-834 -869 0
-834 -874 0
-834 -879 0
-834 -884 0
-834 -889 0
-834 -894 0
-834 -899 0
-834 -904 0
-834 -909 0
-834 -914 0
-834 -919 0
-834 -924 0
-834 -929 0
-834 -934 0
-834 -939 0
-834 -944 0
-834 -949 0
-834 -954 0
-834 -959 0
-834 -964 0
-834 -969 0
-834 -974 0
-834 -979 0
-834 -984 0
-834 -989 0
-834 -994 0
-834 -999 0
-834 -1004 0
-834 -1009 0
-834 -1014 0
-834 -1019 0
-834 -1024 0
-834 -1029 0
-834 -1034 0
-834 -1039 0
-834 -1044 0
-834 -1049 0
-834 -1054 0
-834 -1059 0
-834 -1064 0
-834 -1069 0
-834 -1074 0
-839 -844 0
-839 -849 0
-839 -854 0
-839 -859 0
-839 -864 0
-839 -869 0
-839 -874 0
-839 -879 0
-839 -884 0
-839 -889 0
-839 -894 0
-839 -899 0
-839 -904 0
-839 -909 0
-839 -914 0
-839 -919 0
-839 -924 0
-839 -929 0
-839 -934 0
-839 -939 0
-839 -944 0
-839 -949 0
-839 -954 0
-839 -959 0
-839 -964 0
-839 -969 0
-839 -974 0
-839 -979 0
-839 -984 0
-839 -989 0
-839 -994 0
-839 -999 0
-839 -1004 0
-839 -1009 0
-839 -1014 0
-839 -1019 0
-839 -1024 0
-839 -1029 0
-839 -1034 0
-839 -1039 0
-839 -1044 0
-839 -1049 0
-839 -1054 0
-839 -1059 0
-839 -1064 0
-839 -1069 0
-839 -1074 0
-844 -849 0
-844 -854 0
-844 -859 0
-844 -864 0
-844 -869 0
-844 -874 0
-844 -879 0
-844 -884 0
-844 -889 0
-844 -894 0
-844 -899 0
-844 -904 0
-844 -909 0
-844 -914 0
-844 -919 0
-844 -924 0
-844 -929 0
-844 -934 0
-844 -939 0
-844 -944 0
-844 -949 0
-844 -954 0
-844 -959 0
-844 -964 0
-844 -969 0
-844 -974 0
-844 -979 0
-844 -984 0
-844 -989 0
-844 -994 0
-844 -999 0
-844 -1004 0
-844 -1009 0
-844 -1014 0
-844 -1019 0
-844 -1024 0
-844 -1029 0
-844 -1034 0
-844 -1039 0
-844 -1044 0
-844 -1049 0
-844 -1054 0
-844 -1059 0
-844 -1064 0
-844 -1069 0
-844 -1074 0
-849 -854 0
-849 -859 0
-849 -864 0
-849 -869 0
-849 -874 0
-849 -879 0
-849 -884 0
-849 -889 0
-849 -894 0
-849 -899 0
-849 -904 0
-849 -909 0
-849 -914 0
-849 -919 0
-849 -924 0
-849 -929 0
-849 -934 0
-849 -939 0
-849 -944 0
-849 -949 0
-849 -954 0
-849 -959 0
-849 -964 0
-849 -969 0
-849 -974 0
-849 -979 0
-849 -984 0
-849 -989 0
-849 -994 0
-849 -999 0
-849 -1004 0
-849 -1009 0
-849 -1014 0
-849 -1019 0
-849 -1024 0
-849 -1029 0
-849 -1034 0
-849 -1039 0
-849 -1044 0
-849 -1049 0
-849 -1054 0
-849 -1059 0
-849 -1064 0
-849 -1069 0
-849 -1074 0
-854 -859 0
-854 -864 0
-854 -869 0
-854 -874 0
-854 -879 0
-854 -884 0
-854 -889 0
-854 -894 0
-854 -899 0
-854 -904 0
-854 -909 0
-854 -914 0
-854 -919 0
-854 -924 0
-854 -929 0
-854 -934 0
-854 -939 0
-854 -944 0
-854 -949 0
-854 -954 0
-854 -959 0
-854 -964 0
-854 -969 0
-854 -974 0
-854 -979 0
-854 -984 0
-854 -989 0
-854 -994 0
-854 -999 0
-854 -1004 0
-854 -1009 0
-854 -1014 0
-854 -1019 0
-854 -1024 0
-854 -1029 0
-854 -1034 0
-854 -1039 0
-854 -1044 0
-854 -1049 0
-854 -1054 0
-854 -1059 0
-854 -1064 0
-854 -1069 0
-854 -1074 0
-859 -864 0
-859 -869 0
-859 -874 0
-859 -879 0
-859 -884 0
-859 -889 0
-859 -894 0
-859 -899 0
-859 -904 0
-859 -909 0
-859 -914 0
-859 -919 0
-859 -924 0
-859 -929 0
-859 -934 0
-859 -939 0
-859 -944 0
-859 -949 0
-859 -954 0
-859 -959 0
-859 -964 0
-859 -969 0
-859 -974 0
-859 -979 0
-859 -984 0
-859 -989 0
-859 -994 0
-859 -999 0
-859 -1004 0
-859 -1009 0
-859 -1014 0
-859 -1019 0
-859 -1024 0
-859 -1029 0
-859 -1034 0
-859 -1039 0
-859 -1044 0
-859 -1049 0
-859 -1054 0
-859 -1059 0
-859 -1064 0
-859 -1069 0
-859 -1074 0
-864 -869 0
-864 -874 0
-864 -879 0
-864 -884 0
-864 -889 0
-864 -894 0
-864 -899 0
-864 -904 0
-864 -909 0
-864 -914 0
-864 -919 0
-864 -924 0
-864 -929 0
-864 -934 0
-864 -939 0
-864 -944 0
-864 -949 0
-864 -954 0
-864 -959 0
-864 -964 0
-864 -969 0
-864 -974 0
-864 -979 0
-864 -984 0
-864 -989 0
-864 -994 0
-864 -999 0
-864 -1004 0
-864 -1009 0
-864 -1014 0
-864 -1019 0
-864 -1024 0
-864 -1029 0
-864 -1034 0
-864 -1039 0
-864 -1044 0
-864 -1049 0
-864 -1054 0
-864 -1059 0
-864 -1064 0
-864 -1069 0
-864 -1074 0
-869 -874 0
-869 -879 0
-869 -884 0
-869 -889 0
-869 -894 0
-869 -899 0
-869 -904 0
-869 -909 0
-869 -914 0
-869 -919 0
-869 -924 0
-869 -929 0
-869 -934 0
-869 -939 0
-869 -944 0
-869 -949 0
-869 -954 0
-869 -959 0
-869 -964 0
-869 -969 0
-869 -974 0
-869 -979 0
-869 -984 0
-869 -989 0
-869 -994 0
-869 -999 0
-869 -1004 0
-869 -1009 0
-869 -1014 0
-869 -1019 0
-869 -1024 0
-869 -1029 0
-869 -1034 0
-869 -1039 0
-869 -1044 0
-869 -1049 0
-869 -1054 0
-869 -1059 0
-869 -1064 0
-869 -1069 0
-869 -1074 0
-874 -879 0
-874 -884 0
-874 -889 0
-874 -894 0
-874 -899 0
-874 -904 0
-874 -909 0
-874 -914 0
-874 -919 0
-874 -924 0
-874 -929 0
-874 -934 0
-874 -939 0
-874 -944 0
-874 -949 0
-874 -954 0
-874 -959 0
-874 -964 0
-874 -969 0
-874 -974 0
-874 -979 0
-874 -984 0
-874 -989 0
-874 -994 0
-874 -999 0
-874 -1004 0
-874 -1009 0
-874 -1014 0
-874 -1019 0
-874 -1024 0
-874 -1029 0
-874 -1034 0
-874 -1039 0
-874 -1044 0
-874 -1049 0
-874 -1054 0
-874 -1059 0
-874 -1064 0
-874 -1069 0
-874 -1074 0
-879 -884 0
-879 -889 0
-879 -894 0
-879 -899 0
-879 -904 0
-879 -909 0
-879 -914 0
-879 -919 0
-879 -924 0
-879 -929 0
-879 -934 0
-879 -939 0
-879 -944 0
-879 -949 0
-879 -954 0
-879 -959 0
-879 -964 0
-879 -969 0
-879 -974 0
-879 -979 0
-879 -984 0
-879 -989 0
-879 -994 0
-879 -999 0
-879 -1004 0
-879 -1009 0
-879 -1014 0
-879 -1019 0
-879 -1024 0
-879 -1029 0
-879 -1034 0
-879 -1039 0
-879 -1044 0
-879 -1049 0
-879 -1054 0
-879 -1059 0
-879 -1064 0
-879 -1069 0
-879 -1074 0
-884 -889 0
-884 -894 0
-884 -899 0
-884 -904 0
-884 -909 0
-884 -914 0
-884 -919 0
-884 -924 0
-884 -929 0
-884 -934 0
-884 -939 0
-884 -944 0
-884 -949 0
-884 -954 0
-884 -959 0
-884 -964 0
-884 -969 0
-884 -974 0
-884 -979 0
-884 -984 0
-884 -989 0
-884 -994 0
-884 -999 0
-884 -1004 0
-884 -1009 0
-884 -1014 0
-884 -1019 0
-884 -1024 0
-884 -1029 0
-884 -1034 0
-884 -1039 0
-884 -1044 0
-884 -1049 0
-884 -1054 0
-884 -1059 0
-884 -1064 0
-884 -1069 0
-884 -1074 0
-889 -894 0
-889 -899 0
-889 -904 0
-889 -909 0
-889 -914 0
-889 -919 0
-889 -924 0
-889 -929 0
-889 -934 0
-889 -939 0
-889 -944 0
-889 -949 0
-889 -954 0
-889 -959 0
-889 -964 0
-889 -969 0
-889 -974 0
-889 -979 0
-889 -984 0
-889 -989 0
-889 -994 0
-889 -999 0
-889 -1004 0
-889 -1009 0
-889 -1014 0
-889 -1019 0
-889 -1024 0
-889 -1029 0
-889 -1034 0
-889 -1039 0
-889 -1044 0
-889 -1049 0
-889 -1054 0
-889 -1059 0
-889 -1064 0
-889 -1069 0
-889 -1074 0
-894 -899 0
-894 -904 0
-894 -909 0
-894 -914 0
-894 -919 0
-894 -924 0
-894 -929 0
-894 -934 0
-894 -939 0
-894 -944 0
-894 -949 0
-894 -954 0
-894 -959 0
-894 -964 0
-894 -969 0
-894 -974 0
-894 -979 0
-894 -984 0
-894 -989 0
-894 -994 0
-894 -999 0
-894 -1004 0
-894 -1009 0
-894 -1014 0
-894 -1019 0
-894 -1024 0
-894 -1029 0
-894 -1034 0
-894 -1039 0
-894 -1044 0
-894 -1049 0
-894 -1054 0
-894 -1059 0
-894 -1064 0
-894 -1069 0
-894 -1074 0
-899 -904 0
-899 -909 0
-899 -914 0
-899 -919 0
-899 -924 0
-899 -929 0
-899 -934 0
-899 -939 0
-899 -944 0
-899 -949 0
-899 -954 0
-899 -959 0
-899 -964 0
-899 -969 0
-899 -974 0
-899 -979 0
-899 -984 0
-899 -989 0
-899 -994 0
-899 -999 0
-899 -1004 0
-899 -1009 0
-899 -1014 0
-899 -1019 0
-899 -1024 0
-899 -1029 0
-899 -1034 0
-899 -1039 0
-899 -1044 0
-899 -1049 0
-899 -1054 0
-899 -1059 0
-899 -1064 0
-899 -1069 0
-899 -1074 0
-904 -909 0
-904 -914 0
-904 -919 0
-904 -924 0
-904 -929 0
-904 -934 0
-904 -939 0
-904 -944 0
-904 -949 0
-904 -954 0
-904 -959 0
-904 -964 0
-904 -969 0
-904 -974 0
-904 -979 0
-904 -984 0
-904 -989 0
-904 -994 0
-904 -999 0
-904 -1004 0
-904 -1009 0
-904 -1014 0
-904 -1019 0
-904 -1024 0
-904 -1029 0
-904 -1034 0
-904 -1039 0
-904 -1044 0
-904 -1049 0
-904 -1054 0
-904 -1059 0
-904 -1064 0
-904 -1069 0
-904 -1074 0
-909 -914 0
-909 -919 0
-909 -924 0
-909 -929 0
-909 -934 0
-909 -939 0
-909 -944 0
-909 -949 0
-909 -954 0
-909 -959 0
-909 -964 0
-909 -969 0
-909 -974 0
-909 -979 0
-909 -984 0
-909 -989 0
-909 -994 0
-909 -999 0
-909 -1004 0
-909 -1009 0
-909 -1014 0
-909 -1019 0
-909 -1024 0
-909 -1029 0
-909 -1034 0
-909 -1039 0
-909 -1044 0
-909 -1049 0
-909 -1054 0
-909 -1059 0
-909 -1064 0
-909 -1069 0
-909 -1074 0
-914 -919 0
-914 -924 0
-914 -929 0
-914 -934 0
-914 -939 0
-914 -944 0
-914 -949 0
-914 -954 0
-914 -959 0
-914 -964 0
-914 -969 0
-914 -974 0
-914 -979 0
-914 -984 0
-914 -989 0
-914 -994 0
-914 -999 0
-914 -1004 0
-914 -1009 0
-914 -1014 0
-914 -1019 0
-914 -1024 0
-914 -1029 0
-914 -1034 0
-914 -1039 0
-914 -1044 0
-914 -1049 0
-914 -1054 0
-914 -1059 0
-914 -1064 0
-914 -1069 0
-914 -1074 0
-919 -924 0
-919 -929 0
-919 -934 0
-919 -939 0
-919 -944 0
-919 -949 0
-919 -954 0
-919 -959 0
-919 -964 0
-919 -969 0
-919 -974 0
-919 -979 0
-919 -984 0
-919 -989 0
-919 -994 0
-919 -999 0
-919 -1004 0
-919 -1009 0
-919 -1014 0
-919 -1019 0
-919 -1024 0
-919 -1029 0
-919 -1034 0
-919 -1039 0
-919 -1044 0
-919 -1049 0
-919 -1054 0
-919 -1059 0
-919 -1064 0
-919 -1069 0
-919 -1074 0
-924 -929 0
-924 -934 0
-924 -939 0
-924 -944 0
-924 -949 0
-924 -954 0
-924 -959 0
-924 -964 0
-924 -969 0
-924 -974 0
-924 -979 0
-924 -984 0
-924 -989 0
-924 -994 0
-924 -999 0
-924 -1004 0
-924 -1009 0
-924 -1014 0
-924 -1019 0
-924 -1024 0
-924 -1029 0
-924 -1034 0
-924 -1039 0
-924 -1044 0
-924 -1049 0
-924 -1054 0
-924 -1059 0
-924 -1064 0
-924 -1069 0
-924 -1074 0
-929 -934 0
-929 -939 0
-929 -944 0
-929 -949 0
-929 -954 0
-929 -959 0
-929 -964 0
-929 -969 0
-929 -974 0
-929 -979 0
-929 -984 0
-929 -989 0
-929 -994 0
-929 -999 0
-929 -1004 0
-929 -1009 0
-929 -1014 0
-929 -1019 0
-929 -1024 0
-929 -1029 0
-929 -1034 0
-929 -1039 0
-929 -1044 0
-929 -1049 0
-929 -1054 0
-929 -1059 0
-929 -1064 0
-929 -1069 0
-929 -1074 0
-934 -939 0
-934 -944 0
-934 -949 0
-934 -954 0
-934 -959 0
-934 -964 0
-934 -969 0
-934 -974 0
-934 -979 0
-934 -984 0
-934 -989 0
-934 -994 0
-934 -999 0
-934 -1004 0
-934 -1009 0
-934 -1014 0
-934 -1019 0
-934 -1024 0
-934 -1029 0
-934 -1034 0
-934 -1039 0
-934 -1044 0
-934 -1049 0
-934 -1054 0
-934 -1059 0
-934 -1064 0
-934 -1069 0
-934 -1074 0
-939 -944 0
-939 -949 0
-939 -954 0
-939 -959 0
-939 -964 0
-939 -969 0
-939 -974 0
-939 -979 0
-939 -984 0
-939 -989 0
-939 -994 0
-939 -999 0
-939 -1004 0
-939 -1009 0
-939 -1014 0
-939 -1019 0
-939 -1024 0
-939 -1029 0
-939 -1034 0
-939 -1039 0
-939 -1044 0
-939 -1049 0
-939 -1054 0
-939 -1059 0
-939 -1064 0
-939 -1069 0
-939 -1074 0
-944 -949 0
-944 -954 0
-944 -959 0
-944 -964 0
-944 -969 0
-944 -974 0
-944 -979 0
-944 -984 0
-944 -989 0
-944 -994 0
-944 -999 0
-944 -1004 0
-944 -1009 0
-944 -1014 0
-944 -1019 0
-944 -1024 0
-944 -1029 0
-944 -1034 0
-944 -1039 0
-944 -1044 0
-944 -1049 0
-944 -1054 0
-944 -1059 0
-944 -1064 0
-944 -1069 0
-944 -1074 0
-949 -954 0
-949 -959 0
-949 -964 0
-949 -969 0
-949 -974 0
-949 -979 0
-949 -984 0
-949 -989 0
-949 -994 0
-949 -999 0
-949 -1004 0
-949 -1009 0
-949 -1014 0
-949 -1019 0
-949 -1024 0
-949 -1029 0
-949 -1034 0
-949 -1039 0
-949 -1044 0
-949 -1049 0
-949 -1054 0
-949 -1059 0
-949 -1064 0
-949 -1069 0
-949 -1074 0
-954 -959 0
-954 -964 0
-954 -969 0
-954 -974 0
-954 -979 0
-954 -984 0
-954 -989 0
-954 -994 0
-954 -999 0
-954 -1004 0
-954 -1009 0
-954 -1014 0
-954 -1019 0
-954 -1024 0
-954 -1029 0
-954 -1034 0
-954 -1039 0
-954 -1044 0
-954 -1049 0
-954 -1054 0
-954 -1059 0
-954 -1064 0
-954 -1069 0
-954 -1074 0
-959 -964 0
-959 -969 0
-959 -974 0
-959 -979 0
-959 -984 0
-959 -989 0
-959 -994 0
-959 -999 0
-959 -1004 0
-959 -1009 0
-959 -1014 0
-959 -1019 0
-959 -1024 0
-959 -1029 0
-959 -1034 0
-959 -1039 0
-959 -1044 0
-959 -1049 0
-959 -1054 0
-959 -1059 0
-959 -1064 0
-959 -1069 0
-959 -1074 0
-964 -969 0
-964 -974 0
-964 -979 0
-964 -984 0
-964 -989 0
-964 -994 0
-964 -999 0
-964 -1004 0
-964 -1009 0
-964 -1014 0
-964 -1019 0
-964 -1024 0
-964 -1029 0
-964 -1034 0
-964 -1039 0
-964 -1044 0
-964 -1049 0
-964 -1054 0
-964 -1059 0
-964 -1064 0
-964 -1069 0
-964 -1074 0
-969 -974 0
-969 -979 0
-969 -984 0
-969 -989 0
-969 -994 0
-969 -999 0
-969 -1004 0
-969 -1009 0
-969 -1014 0
-969 -1019 0
-969 -1024 0
-969 -1029 0
-969 -1034 0
-969 -1039 0
-969 -1044 0
-969 -1049 0
-969 -1054 0
-969 -1059 0
-969 -1064 0
-969 -1069 0
-969 -1074 0
-974 -979 0
-974 -984 0
-974 -989 0
-974 -994 0
-974 -999 0
-974 -1004 0
-974 -1009 0
-974 -1014 0
-974 -1019 0
-974 -1024 0
-974 -1029 0
-974 -1034 0
-974 -1039 0
-974 -1044 0
-974 -1049 0
-974 -1054 0
-974 -1059 0
-974 -1064 0
-974 -1069 0
-974 -1074 0
-979 -984 0
-979 -989 0
-979 -994 0
-979 -999 0
-979 -1004 0
-979 -1009 0
-979 -1014 0
-979 -1019 0
-979 -1024 0
-979 -1029 0
-979 -1034 0
-979 -1039 0
-979 -1044 0
-979 -1049 0
-979 -1054 0
-979 -1059 0
-979 -1064 0
-979 -1069 0
-979 -1074 0
-984 -989 0
-984 -994 0
-984 -999 0
-984 -1004 0
-984 -1009 0
-984 -1014 0
-984 -1019 0
-984 -1024 0
-984 -1029 0
-984 -1034 0
-984 -1039 0
-984 -1044 0
-984 -1049 0
-984 -1054 0
-984 -1059 0
-984 -1064 0
-984 -1069 0
-984 -1074 0
-989 -994 0
-989 -999 0
-989 -1004 0
-989 -1009 0
-989 -1014 0
-989 -1019 0
-989 -1024 0
-989 -1029 0
-989 -1034 0
-989 -1039 0
-989 -1044 0
-989 -1049 0
-989 -1054 0
-989 -1059 0
-989 -1064 0
-989 -1069 0
-989 -1074 0
-994 -999 0
-994 -1004 0
-994 -1009 0
-994 -1014 0
-994 -1019 0
-994 -1024 0
-994 -1029 0
-994 -1034 0
-994 -1039 0
-994 -1044 0
-994 -1049 0
-994 -1054 0
-994 -1059 0
-994 -1064 0
-994 -1069 0
-994 -1074 0
-999 -1004 0
-999 -1009 0
-999 -1014 0
-999 -1019 0
-999 -1024 0
-999 -1029 0
-999 -1034 0
-999 -1039 0
-999 -1044 0
-999 -1049 0
-999 -1054 0
-999 -1059 0
-999 -1064 0
-999 -1069 0
-999 -1074 0
-1004 -1009 0
-1004 -1014 0
-1004 -1019 0
-1004 -1024 0
-1004 -1029 0
-1004 -1034 0
-1004 -1039 0
-1004 -1044 0
-1004 -1049 0
-1004 -1054 0
-1004 -1059 0
-1004 -1064 0
-1004 -1069 0
-1004 -1074 0
-1009 -1014 0
-1009 -1019 0
-1009 -1024 0
-1009 -1029 0
-1009 -1034 0
-1009 -1039 0
-1009 -1044 0
-1009 -1049 0
-1009 -1054 0
-1009 -1059 0
-1009 -1064 0
-1009 -1069 0
-1009 -1074 0
-1014 -1019 0
-1014 -1024 0
-1014 -1029 0
-1014 -1034 0
-1014 -1039 0
-1014 -1044 0
-1014 -1049 0
-1014 -1054 0
-1014 -1059 0
-1014 -1064 0
-1014 -1069 0
-1014 -1074 0
-1019 -1024 0
-1019 -1029 0
-1019 -1034 0
-1019 -1039 0
-1019 -1044 0
-1019 -1049 0
-1019 -1054 0
-1019 -1059 0
-1019 -1064 0
-1019 -1069 0
-1019 -1074 0
-1024 -1029 0
-1024 -1034 0
-1024 -1039 0
-1024 -1044 0
-1024 -1049 0
-1024 -1054 0
-1024 -1059 0
-1024 -1064 0
-1024 -1069 0
-1024 -1074 0
-1029 -1034 0
-1029 -1039 0
-1029 -1044 0
-1029 -1049 0
-1029 -1054 0
-1029 -1059 0
-1029 -1064 0
-1029 -1069 0
-1029 -1074 0
-1034 -1039 0
-1034 -1044 0
-1034 -1049 0
-1034 -1054 0
-1034 -1059 0
-1034 -1064 0
-1034 -1069 0
-1034 -1074 0
-1039 -1044 0
-1039 -1049 0
-1039 -1054 0
-1039 -1059 0
-1039 -1064 0
-1039 -1069 0
-1039 -1074 0
-1044 -1049 0
-1044 -1054 0
-1044 -1059 0
-1044 -1064 0
-1044 -1069 0
-1044 -1074 0
-1049 -1054 0
-1049 -1059 0
-1049 -1064 0
-1049 -1069 0
-1049 -1074 0
-1054 -1059 0
-1054 -1064 0
-1054 -1069 0
-1054 -1074 0
-1059 -1064 0
-1059 -1069 0
-1059 -1074 0
-1064 -1069 0
-1064 -1074 0
-1069 -1074 0
-659 203 0
-659 -161 0
-659 -149 6 0
-659 -149 138 0
-659 -149 -47 0
-659 -149 -53 0
-659 -149 -59 0
-659 -149 -65 0
-659 -149 -71 0
-659 -149 -41 -155 0
-659 -149 -77 -173 0
-659 -149 -107 -191 0
-659 -149 335 443 551 0
-659 -155 6 0
-659 -155 144 0
-659 -155 -47 0
-659 -155 -53 0
-659 -155 -59 0
-659 -155 -65 0
-659 -155 -71 0
-659 -155 -41 -161 0
-659 -155 -77 -179 0
-659 -155 -107 -197 0
-659 -155 341 449 557 0
-659 -5 -149 -137 0
-659 -5 -155 -143 0
-664 203 0
-664 -161 0
-664 -149 12 0
-664 -149 138 0
-664 -149 -41 0
-664 -149 -53 0
-664 -149 -59 0
-664 -149 -65 0
-664 -149 -71 0
-664 -149 -47 -155 0
-664 -149 -77 -173 0
-664 -149 -83 -173 0
-664 -149 -107 -191 0
-664 -149 -113 -191 0
-664 -149 353 461 569 0
-664 -155 12 0
-664 -155 144 0
-664 -155 -41 0
-664 -155 -53 0
-664 -155 -59 0
-664 -155 -65 0
-664 -155 -71 0
-664 -155 -47 -161 0
-664 -155 -77 -179 0
-664 -155 -83 -179 0
-664 -155 -107 -197 0
-664 -155 -113 -197 0
-664 -155 359 467 575 0
-664 -11 -149 -137 0
-664 -11 -155 -143 0
-669 203 0
-669 -161 0
-669 -149 18 0
-669 -149 138 0
-669 -149 -41 0
-669 -149 -47 0
-669 -149 -59 0
-669 -149 -65 0
-669 -149 -71 0
-669 -149 -53 -155 0
-669 -149 -83 -173 0
-669 -149 -89 -173 0
-669 -149 -107 -191 0
-669 -149 -113 -191 0
-669 -149 -119 -191 0
-669 -149 371 479 587 0
-669 -155 18 0
-669 -155 144 0
-669 -155 -41 0
-669 -155 -47 0
-669 -155 -59 0
-669 -155 -65 0
-669 -155 -71 0
-669 -155 -53 -161 0
-669 -155 -83 -179 0
-669 -155 -89 -179 0
-669 -155 -107 -197 0
-669 -155 -113 -197 0
-669 -155 -119 -197 0
-669 -155 377 485 593 0
-669 -17 -149 -137 0
-669 -17 -155 -143 0
-674 203 0
-674 -161 0
-674 -149 24 0
-674 -149 138 0
-674 -149 -41 0
-674 -149 -47 0
-674 -149 -53 0
-674 -149 -65 0
-674 -149 -71 0
-674 -149 -59 -155 0
-674 -149 -89 -173 0
-674 -149 -95 -173 0
-674 -149 -113 -191 0
-674 -149 -119 -191 0
-674 -149 -125 -191 0
-674 -149 389 497 605 0
-674 -155 24 0
-674 -155 144 0
-674 -155 -41 0
-674 -155 -47 0
-674 -155 -53 0
-674 -155 -65 0
-674 -155 -71 0
-674 -155 -59 -161 0
-674 -155 -89 -179 0
-674 -155 -95 -179 0
-674 -155 -113 -197 0
-674 -155 -119 -197 0
-674 -155 -125 -197 0
-674 -155 395 503 611 0
-674 -23 -149 -137 0
-674 -23 -155 -143 0
-679 203 0
-679 -161 0
-679 -149 30 0
-679 -149 138 0
-679 -149 -41 0
-679 -149 -47 0
-679 -149 -53 0
-679 -149 -59 0
-679 -149 -71 0
-679 -149 -65 -155 0
-679 -149 -95 -173 0
-679 -149 -101 -173 0
-679 -149 -119 -191 0
-679 -149 -125 -191 0
-679 -149 407 515 623 0
-679 -155 30 0
-679 -155 144 0
-679 -155 -41 0
-679 -155 -47 0
-679 -155 -53 0
-679 -155 -59 0
-679 -155 -71 0
-679 -155 -65 -161 0
-679 -155 -95 -179 0
-679 -155 -101 -179 0
-679 -155 -119 -197 0
-679 -155 -125 -197 0
-679 -155 413 521 629 0
-679 -29 -149 -137 0
-679 -29 -155 -143 0
-684 203 0
-684 -161 0
-684 -149 36 0
-684 -149 138 0
-684 -149 -41 0
-684 -149 -47 0
-684 -149 -53 0
-684 -149 -59 0
-684 -149 -65 0
-684 -149 -71 -155 0
-684 -149 -101 -173 0
-684 -149 -125 -191 0
-684 -149 425 533 641 0
-684 -155 36 0
-684 -155 144 0
-684 -155 -41 0
-684 -155 -47 0
-684 -155 -53 0
-684 -155 -59 0
-684 -155 -65 0
-684 -155 -71 -161 0
-684 -155 -101 -179 0
-684 -155 -125 -197 0
-684 -155 431 539 647 0
-684 -35 -149 -137 0
-684 -35 -155 -143 0
-689 203 0
-689 -179 0
-689 -167 6 0
-689 -167 138 0
-689 -167 -83 0
-689 -167 -89 0
-689 -167 -95 0
-689 -167 -101 0
-689 -167 -41 -155 0
-689 -167 -77 -173 0
-689 -167 -107 -191 0
-689 -167 335 443 551 0
-689 -173 6 0
-689 -173 144 0
-689 -173 -83 0
-689 -173 -89 0
-689 -173 -95 0
-689 -173 -101 0
-689 -173 -41 -161 0
-689 -173 -77 -179 0
-689 -173 -107 -197 0
-689 -173 341 449 557 0
-689 -5 -167 -137 0
-689 -5 -173 -143 0
-694 203 0
-694 -179 0
-694 -167 12 0
-694 -167 138 0
-694 -167 -89 0
-694 -167 -95 0
-694 -167 -101 0
-694 -167 -47 -155 0
-694 -167 -77 -173 0
-694 -167 -83 -173 0
-694 -167 -107 -191 0
-694 -167 -113 -191 0
-694 -167 353 461 569 0
-694 -173 12 0
-694 -173 144 0
-694 -173 -89 0
-694 -173 -95 0
-694 -173 -101 0
-694 -173 -47 -161 0
-694 -173 -77 -179 0
-694 -173 -83 -179 0
-694 -173 -107 -197 0
-694 -173 -113 -197 0
-694 -173 359 467 575 0
-694 -11 -167 -137 0
-694 -11 -173 -143 0
-699 203 0
-699 -179 0
-699 -167 18 0
-699 -167 138 0
-699 -167 -77 0
-699 -167 -95 0
-699 -167 -101 0
-699 -167 -53 -155 0
-699 -167 -83 -173 0
-699 -167 -89 -173 0
-699 -167 -107 -191 0
-699 -167 -113 -191 0
-699 -167 -119 -191 0
-699 -167 371 479 587 0
-699 -173 18 0
-699 -173 144 0
-699 -173 -77 0
-699 -173 -95 0
-699 -173 -101 0
-699 -173 -53 -161 0
-699 -173 -83 -179 0
-699 -173 -89 -179 0
-699 -173 -107 -197 0
-699 -173 -113 -197 0
-699 -173 -119 -197 0
-699 -173 377 485 593 0
-699 -17 -167 -137 0
-699 -17 -173 -143 0
-704 203 0
-704 -179 0
-704 -167 24 0
-704 -167 138 0
-704 -167 -77 0
-704 -167 -83 0
-704 -167 -101 0
-704 -167 -59 -155 0
-704 -167 -89 -173 0
-704 -167 -95 -173 0
-704 -167 -113 -191 0
-704 -167 -119 -191 0
-704 -167 -125 -191 0
-704 -167 389 497 605 0
-704 -173 24 0
-704 -173 144 0
-704 -173 -77 0
-704 -173 -83 0
-704 -173 -101 0
-704 -173 -59 -161 0
-704 -173 -89 -179 0
-704 -173 -95 -179 0
-704 -173 -113 -197 0
-704 -173 -119 -197 0
-704 -173 -125 -197 0
-704 -173 395 503 611 0
-704 -23 -167 -137 0
-704 -23 -173 -143 0
-709 203 0
-709 -179 0
-709 -167 30 0
-709 -167 138 0
-709 -167 -77 0
-709 -167 -83 0
-709 -167 -89 0
-709 -167 -65 -155 0
-709 -167 -95 -173 0
-709 -167 -101 -173 0
-709 -167 -119 -191 0
-709 -167 -125 -191 0
-709 -167 407 515 623 0
-709 -173 30 0
-709 -173 144 0
-709 -173 -77 0
-709 -173 -83 0
-709 -173 -89 0
-709 -173 -65 -161 0
-709 -173 -95 -179 0
-709 -173 -101 -179 0
-709 -173 -119 -197 0
-709 -173 -125 -197 0
-709 -173 413 521 629 0
-709 -29 -167 -137 0
-709 -29 -173 -143 0
-714 203 0
-714 -179 0
-714 -167 36 0
-714 -167 138 0
-714 -167 -77 0
-714 -167 -83 0
-714 -167 -89 0
-714 -167 -95 0
-714 -167 -71 -155 0
-714 -167 -101 -173 0
-714 -167 -125 -191 0
-714 -167 425 533 641 0
-714 -173 36 0
-714 -173 144 0
-714 -173 -77 0
-714 -173 -83 0
-714 -173 -89 0
-714 -173 -95 0
-714 -173 -71 -161 0
-714 -173 -101 -179 0
-714 -173 -125 -197 0
-714 -173 431 539 647 0
-714 -35 -167 -137 0
-714 -35 -173 -143 0
-719 203 0
-719 -197 0
-719 -185 6 0
-719 -185 138 0
-719 -185 -113 0
-719 -185 -119 0
-719 -185 -125 0
-719 -185 -41 -155 0
-719 -185 -77 -173 0
-719 -185 -107 -191 0
-719 -185 335 443 551 0
-719 -191 6 0
-719 -191 144 0
-719 -191 -113 0
-719 -191 -119 0
-719 -191 -125 0
-719 -191 -41 -161 0
-719 -191 -77 -179 0
-719 -191 -107 -197 0
-719 -191 341 449 557 0
-719 -5 -185 -137 0
-719 -5 -191 -143 0
-724 203 0
-724 -197 0
-724 -185 12 0
-724 -185 138 0
-724 -185 -119 0
-724 -185 -125 0
-724 -185 -47 -155 0
-724 -185 -77 -173 0
-724 -185 -83 -173 0
-724 -185 -107 -191 0
-724 -185 -113 -191 0
-724 -185 353 461 569 0
-724 -191 12 0
-724 -191 144 0
-724 -191 -119 0
-724 -191 -125 0
-724 -191 -47 -161 0
-724 -191 -77 -179 0
-724 -191 -83 -179 0
-724 -191 -107 -197 0
-724 -191 -113 -197 0
-724 -191 359 467 575 0
-724 -11 -185 -137 0
-724 -11 -191 -143 0
-729 203 0
-729 -197 0
-729 -185 18 0
-729 -185 138 0
-729 -185 -125 0
-729 -185 -53 -155 0
-729 -185 -83 -173 0
-729 -185 -89 -173 0
-729 -185 -107 -191 0
-729 -185 -113 -191 0
-729 -185 -119 -191 0
-729 -185 371 479 587 0
-729 -191 18 0
-729 -191 144 0
-729 -191 -125 0
-729 -191 -53 -161 0
-729 -191 -83 -179 0
-729 -191 -89 -179 0
-729 -191 -107 -197 0
-729 -191 -113 -197 0
-729 -191 -119 -197 0
-729 -191 377 485 593 0
-729 -17 -185 -137 0
-729 -17 -191 -143 0
-734 203 0
-734 -197 0
-734 -185 24 0
-734 -185 138 0
-734 -185 -107 0
-734 -185 -59 -155 0
-734 -185 -89 -173 0
-734 -185 -95 -173 0
-734 -185 -113 -191 0
-734 -185 -119 -191 0
-734 -185 -125 -191 0
-734 -185 389 497 605 0
-734 -191 24 0
-734 -191 144 0
-734 -191 -107 0
-734 -191 -59 -161 0
-734 -191 -89 -179 0
-734 -191 -95 -179 0
-734 -191 -113 -197 0
-734 -191 -119 -197 0
-734 -191 -125 -197 0
-734 -191 395 503 611 0
-734 -23 -185 -137 0
-734 -23 -191 -143 0
-739 203 0
-739 -197 0
-739 -185 30 0
-739 -185 138 0
-739 -185 -107 0
-739 -185 -113 0
-739 -185 -65 -155 0
-739 -185 -95 -173 0
-739 -185 -101 -173 0
-739 -185 -119 -191 0
-739 -185 -125 -191 0
-739 -185 407 515 623 0
-739 -191 30 0
-739 -191 144 0
-739 -191 -107 0
-739 -191 -113 0
-739 -191 -65 -161 0
-739 -191 -95 -179 0
-739 -191 -101 -179 0
-739 -191 -119 -197 0
-739 -191 -125 -197 0
-739 -191 413 521 629 0
-739 -29 -185 -137 0
-739 -29 -191 -143 0
-744 203 0
-744 -197 0
-744 -185 36 0
-744 -185 138 0
-744 -185 -107 0
-744 -185 -113 0
-744 -185 -119 0
-744 -185 -71 -155 0
-744 -185 -101 -173 0
-744 -185 -125 -191 0
-744 -185 425 533 641 0
-744 -191 36 0
-744 -191 144 0
-744 -191 -107 0
-744 -191 -113 0
-744 -191 -119 0
-744 -191 -71 -161 0
-744 -191 -101 -179 0
-744 -191 -125 -197 0
-744 -191 431 539 647 0
-744 -35 -185 -137 0
-744 -35 -191 -143 0
-749 203 0
-749 6 0
-749 132 0
-749 -5 -131 0
-749 -41 -149 0
-749 -77 -167 0
-749 -107 -185 0
-754 203 0
-754 12 0
-754 132 0
-754 -11 -131 0
-754 -47 -149 0
-754 -77 -167 0
-754 -83 -167 0
-754 -107 -185 0
-754 -113 -185 0
-759 203 0
-759 18 0
-759 132 0
-759 -17 -131 0
-759 -53 -149 0
-759 -83 -167 0
-759 -89 -167 0
-759 -107 -185 0
-759 -113 -185 0
-759 -119 -185 0
-764 203 0
-764 24 0
-764 132 0
-764 -23 -131 0
-764 -59 -149 0
-764 -89 -167 0
-764 -95 -167 0
-764 -113 -185 0
-764 -119 -185 0
-764 -125 -185 0
-769 203 0
-769 30 0
-769 132 0
-769 -29 -131 0
-769 -65 -149 0
-769 -95 -167 0
-769 -101 -167 0
-769 -119 -185 0
-769 -125 -185 0
-774 203 0
-774 36 0
-774 132 0
-774 -35 -131 0
-774 -71 -149 0
-774 -101 -167 0
-774 -125 -185 0
-779 209 0
-779 -143 0
-779 -131 42 0
-779 -131 156 0
-779 -131 -11 0
-779 -131 -17 0
-779 -131 -23 0
-779 -131 -29 0
-779 -131 -35 0
-779 -131 -5 -137 0
-779 -131 -77 -173 0
-779 -131 -107 -191 0
-779 -131 227 443 551 0
-779 -137 42 0
-779 -137 162 0
-779 -137 -11 0
-779 -137 -17 0
-779 -137 -23 0
-779 -137 -29 0
-779 -137 -35 0
-779 -137 -5 -143 0
-779 -137 -77 -179 0
-779 -137 -107 -197 0
-779 -137 233 449 557 0
-779 -41 -131 -155 0
-779 -41 -137 -161 0
-784 209 0
-784 -143 0
-784 -131 48 0
-784 -131 156 0
-784 -131 -5 0
-784 -131 -17 0
-784 -131 -23 0
-784 -131 -29 0
-784 -131 -35 0
-784 -131 -11 -137 0
-784 -131 -77 -173 0
-784 -131 -83 -173 0
-784 -131 -107 -191 0
-784 -131 -113 -191 0
-784 -131 245 461 569 0
-784 -137 48 0
-784 -137 162 0
-784 -137 -5 0
-784 -137 -17 0
-784 -137 -23 0
-784 -137 -29 0
-784 -137 -35 0
-784 -137 -11 -143 0
-784 -137 -77 -179 0
-784 -137 -83 -179 0
-784 -137 -107 -197 0
-784 -137 -113 -197 0
-784 -137 251 467 575 0
-784 -47 -131 -155 0
-784 -47 -137 -161 0
-789 209 0
-789 -143 0
-789 -131 54 0
-789 -131 156 0
-789 -131 -5 0
-789 -131 -11 0
-789 -131 -23 0
-789 -131 -29 0
-789 -131 -35 0
-789 -131 -17 -137 0
-789 -131 -83 -173 0
-789 -131 -89 -173 0
-789 -131 -107 -191 0
-789 -131 -113 -191 0
-789 -131 -119 -191 0
-789 -131 263 479 587 0
-789 -137 54 0
-789 -137 162 0
-789 -137 -5 0
-789 -137 -11 0
-789 -137 -23 0
-789 -137 -29 0
-789 -137 -35 0
-789 -137 -17 -143 0
-789 -137 -83 -179 0
-789 -137 -89 -179 0
-789 -137 -107 -197 0
-789 -137 -113 -197 0
-789 -137 -119 -197 0
-789 -137 269 485 593 0
-789 -53 -131 -155 0
-789 -53 -137 -161 0
-794 209 0
-794 -143 0
-794 -131 60 0
-794 -131 156 0
-794 -131 -5 0
-794 -131 -11 0
-794 -131 -17 0
-794 -131 -29 0
-794 -131 -35 0
-794 -131 -23 -137 0
-794 -131 -89 -173 0
-794 -131 -95 -173 0
-794 -131 -113 -191 0
-794 -131 -119 -191 0
-794 -131 -125 -191 0
-794 -131 281 497 605 0
-794 -137 60 0
-794 -137 162 0
-794 -137 -5 0
-794 -137 -11 0
-794 -137 -17 0
-794 -137 -29 0
-794 -137 -35 0
-794 -137 -23 -143 0
-794 -137 -89 -179 0
-794 -137 -95 -179 0
-794 -137 -113 -197 0
-794 -137 -119 -197 0
-794 -137 -125 -197 0
-794 -137 287 503 611 0
-794 -59 -131 -155 0
-794 -59 -137 -161 0
-799 209 0
-799 -143 0
-799 -131 66 0
-799 -131 156 0
-799 -131 -5 0
-799 -131 -11 0
-799 -131 -17 0
-799 -131 -23 0
-799 -131 -35 0
-799 -131 -29 -137 0
-799 -131 -95 -173 0
-799 -131 -101 -173 0
-799 -131 -119 -191 0
-799 -131 -125 -191 0
-799 -131 299 515 623 0
-799 -137 66 0
-799 -137 162 0
-799 -137 -5 0
-799 -137 -11 0
-799 -137 -17 0
-799 -137 -23 0
-799 -137 -35 0
-799 -137 -29 -143 0
-799 -137 -95 -179 0
-799 -137 -101 -179 0
-799 -137 -119 -197 0
-799 -137 -125 -197 0
-799 -137 305 521 629 0
-799 -65 -131 -155 0
-799 -65 -137 -161 0
-804 209 0
-804 -143 0
-804 -131 72 0
-804 -131 156 0
-804 -131 -5 0
-804 -131 -11 0
-804 -131 -17 0
-804 -131 -23 0
-804 -131 -29 0
-804 -131 -35 -137 0
-804 -131 -101 -173 0
-804 -131 -125 -191 0
-804 -131 317 533 641 0
-804 -137 72 0
-804 -137 162 0
-804 -137 -5 0
-804 -137 -11 0
-804 -137 -17 0
-804 -137 -23 0
-804 -137 -29 0
-804 -137 -35 -143 0
-804 -137 -101 -179 0
-804 -137 -125 -197 0
-804 -137 323 539 647 0
-804 -71 -131 -155 0
-804 -71 -137 -161 0
-809 209 0
-809 -179 0
-809 -167 42 0
-809 -167 156 0
-809 -167 -83 0
-809 -167 -89 0
-809 -167 -95 0
-809 -167 -101 0
-809 -167 -5 -137 0
-809 -167 -77 -173 0
-809 -167 -107 -191 0
-809 -167 227 443 551 0
-809 -173 42 0
-809 -173 162 0
-809 -173 -83 0
-809 -173 -89 0
-809 -173 -95 0
-809 -173 -101 0
-809 -173 -5 -143 0
-809 -173 -77 -179 0
-809 -173 -107 -197 0
-809 -173 233 449 557 0
-809 -41 -167 -155 0
-809 -41 -173 -161 0
-814 209 0
-814 -179 0
-814 -167 48 0
-814 -167 156 0
-814 -167 -89 0
-814 -167 -95 0
-814 -167 -101 0
-814 -167 -11 -137 0
-814 -167 -77 -173 0
-814 -167 -83 -173 0
-814 -167 -107 -191 0
-814 -167 -113 -191 0
-814 -167 245 461 569 0
-814 -173 48 0
-814 -173 162 0
-814 -173 -89 0
-814 -173 -95 0
-814 -173 -101 0
-814 -173 -11 -143 0
-814 -173 -77 -179 0
-814 -173 -83 -179 0
-814 -173 -107 -197 0
-814 -173 -113 -197 0
-814 -173 251 467 575 0
-814 -47 -167 -155 0
-814 -47 -173 -161 0
-819 209 0
-819 -179 0
-819 -167 54 0
-819 -167 156 0
-819 -167 -77 0
-819 -167 -95 0
-819 -167 -101 0
-819 -167 -17 -137 0
-819 -167 -83 -173 0
-819 -167 -89 -173 0
-819 -167 -107 -191 0
-819 -167 -113 -191 0
-819 -167 -119 -191 0
-819 -167 263 479 587 0
-819 -173 54 0
-819 -173 162 0
-819 -173 -77 0
-819 -173 -95 0
-819 -173 -101 0
-819 -173 -17 -143 0
-819 -173 -83 -179 0
-819 -173 -89 -179 0
-819 -173 -107 -197 0
-819 -173 -113 -197 0
-819 -173 -119 -197 0
-819 -173 269 485 593 0
-819 -53 -167 -155 0
-819 -53 -173 -161 0
-824 209 0
-824 -179 0
-824 -167 60 0
-824 -167 156 0
-824 -167 -77 0
-824 -167 -83 0
-824 -167 -101 0
-824 -167 -23 -137 0
-824 -167 -89 -173 0
-824 -167 -95 -173 0
-824 -167 -113 -191 0
-824 -167 -119 -191 0
-824 -167 -125 -191 0
-824 -167 281 497 605 0
-824 -173 60 0
-824 -173 162 0
-824 -173 -77 0
-824 -173 -83 0
-824 -173 -101 0
-824 -173 -23 -143 0
-824 -173 -89 -179 0
-824 -173 -95 -179 0
-824 -173 -113 -197 0
-824 -173 -119 -197 0
-824 -173 -125 -197 0
-824 -173 287 503 611 0
-824 -59 -167 -155 0
-824 -59 -173 -161 0
-829 209 0
-829 -179 0
-829 -167 66 0
-829 -167 156 0
-829 -167 -77 0
-829 -167 -83 0
-829 -167 -89 0
-829 -167 -29 -137 0
-829 -167 -95 -173 0
-829 -167 -101 -173 0
-829 -167 -119 -191 0
-829 -167 -125 -191 0
-829 -167 299 515 623 0
-829 -173 66 0
-829 -173 162 0
-829 -173 -77 0
-829 -173 -83 0
-829 -173 -89 0
-829 -173 -29 -143 0
-829 -173 -95 -179 0
-829 -173 -101 -179 0
-829 -173 -119 -197 0
-829 -173 -125 -197 0
-829 -173 305 521 629 0
-829 -65 -167 -155 0
-829 -65 -173 -161 0
-834 209 0
-834 -179 0
-834 -167 72 0
-834 -167 156 0
-834 -167 -77 0
-834 -167 -83 0
-834 -167 -89 0
-834 -167 -95 0
-834 -167 -35 -137 0
-834 -167 -101 -173 0
-834 -167 -125 -191 0
-834 -167 317 533 641 0
-834 -173 72 0
-834 -173 162 0
-834 -173 -77 0
-834 -173 -83 0
-834 -173 -89 0
-834 -173 -95 0
-834 -173 -35 -143 0
-834 -173 -101 -179 0
-834 -173 -125 -197 0
-834 -173 323 539 647 0
-834 -71 -167 -155 0
-834 -71 -173 -161 0
-839 209 0
-839 -197 0
-839 -185 42 0
-839 -185 156 0
-839 -185 -113 0
-839 -185 -119 0
-839 -185 -125 0
-839 -185 -5 -137 0
-839 -185 -77 -173 0
-839 -185 -107 -191 0
-839 -185 227 443 551 0
-839 -191 42 0
-839 -191 162 0
-839 -191 -113 0
-839 -191 -119 0
-839 -191 -125 0
-839 -191 -5 -143 0
-839 -191 -77 -179 0
-839 -191 -107 -197 0
-839 -191 233 449 557 0
-839 -41 -185 -155 0
-839 -41 -191 -161 0
-844 209 0
-844 -197 0
-844 -185 48 0
-844 -185 156 0
-844 -185 -119 0
-844 -185 -125 0
-844 -185 -11 -137 0
-844 -185 -77 -173 0
-844 -185 -83 -173 0
-844 -185 -107 -191 0
-844 -185 -113 -191 0
-844 -185 245 461 569 0
-844 -191 48 0
-844 -191 162 0
-844 -191 -119 0
-844 -191 -125 0
-844 -191 -11 -143 0
-844 -191 -77 -179 0
-844 -191 -83 -179 0
-844 -191 -107 -197 0
-844 -191 -113 -197 0
-844 -191 251 467 575 0
-844 -47 -185 -155 0
-844 -47 -191 -161 0
-849 209 0
-849 -197 0
-849 -185 54 0
-849 -185 156 0
-849 -185 -125 0
-849 -185 -17 -137 0
-849 -185 -83 -173 0
-849 -185 -89 -173 0
-849 -185 -107 -191 0
-849 -185 -113 -191 0
-849 -185 -119 -191 0
-849 -185 263 479 587 0
-849 -191 54 0
-849 -191 162 0
-849 -191 -125 0
-849 -191 -17 -143 0
-849 -191 -83 -179 0
-849 -191 -89 -179 0
-849 -191 -107 -197 0
-849 -191 -113 -197 0
-849 -191 -119 -197 0
-849 -191 269 485 593 0
-849 -53 -185 -155 0
-849 -53 -191 -161 0
-854 209 0
-854 -197 0
-854 -185 60 0
-854 -185 156 0
-854 -185 -107 0
-854 -185 -23 -137 0
-854 -185 -89 -173 0
-854 -185 -95 -173 0
-854 -185 -113 -191 0
-854 -185 -119 -191 0
-854 -185 -125 -191 0
-854 -185 281 497 605 0
-854 -191 60 0
-854 -191 162 0
-854 -191 -107 0
-854 -191 -23 -143 0
-854 -191 -89 -179 0
-854 -191 -95 -179 0
-854 -191 -113 -197 0
-854 -191 -119 -197 0
-854 -191 -125 -197 0
-854 -191 287 503 611 0
-854 -59 -185 -155 0
-854 -59 -191 -161 0
-859 209 0
-859 -197 0
-859 -185 66 0
-859 -185 156 0
-859 -185 -107 0
-859 -185 -113 0
-859 -185 -29 -137 0
-859 -185 -95 -173 0
-859 -185 -101 -173 0
-859 -185 -119 -191 0
-859 -185 -125 -191 0
-859 -185 299 515 623 0
-859 -191 66 0
-859 -191 162 0
-859 -191 -107 0
-859 -191 -113 0
-859 -191 -29 -143 0
-859 -191 -95 -179 0
-859 -191 -101 -179 0
-859 -191 -119 -197 0
-859 -191 -125 -197 0
-859 -191 305 521 629 0
-859 -65 -185 -155 0
-859 -65 -191 -161 0
-864 209 0
-864 -197 0
-864 -185 72 0
-864 -185 156 0
-864 -185 -107 0
-864 -185 -113 0
-864 -185 -119 0
-864 -185 -35 -137 0
-864 -185 -101 -173 0
-864 -185 -125 -191 0
-864 -185 317 533 641 0
-864 -191 72 0
-864 -191 162 0
-864 -191 -107 0
-864 -191 -113 0
-864 -191 -119 0
-864 -191 -35 -143 0
-864 -191 -101 -179 0
-864 -191 -125 -197 0
-864 -191 323 539 647 0
-864 -71 -185 -155 0
-864 -71 -191 -161 0
-869 209 0
-869 42 0
-869 150 0
-869 -41 -149 0
-869 -5 -131 0
-869 -77 -167 0
-869 -107 -185 0
-874 209 0
-874 48 0
-874 150 0
-874 -47 -149 0
-874 -11 -131 0
-874 -77 -167 0
-874 -83 -167 0
-874 -107 -185 0
-874 -113 -185 0
-879 209 0
-879 54 0
-879 150 0
-879 -53 -149 0
-879 -17 -131 0
-879 -83 -167 0
-879 -89 -167 0
-879 -107 -185 0
-879 -113 -185 0
-879 -119 -185 0
-884 209 0
-884 60 0
-884 150 0
-884 -59 -149 0
-884 -23 -131 0
-884 -89 -167 0
-884 -95 -167 0
-884 -113 -185 0
-884 -119 -185 0
-884 -125 -185 0
-889 209 0
-889 66 0
-889 150 0
-889 -65 -149 0
-889 -29 -131 0
-889 -95 -167 0
-889 -101 -167 0
-889 -119 -185 0
-889 -125 -185 0
-894 209 0
-894 72 0
-894 150 0
-894 -71 -149 0
-894 -35 -131 0
-894 -101 -167 0
-894 -125 -185 0
-899 215 0
-899 -143 0
-899 -131 78 0
-899 -131 174 0
-899 -131 -17 0
-899 -131 -23 0
-899 -131 -29 0
-899 -131 -35 0
-899 -131 -5 -137 0
-899 -131 -11 -137 0
-899 -131 -41 -155 0
-899 -131 -47 -155 0
-899 -131 -107 -191 0
-899 -131 -113 -191 0
-899 -131 227 335 551 245 353 569 0
-899 -137 78 0
-899 -137 180 0
-899 -137 -17 0
-899 -137 -23 0
-899 -137 -29 0
-899 -137 -35 0
-899 -137 -5 -143 0
-899 -137 -11 -143 0
-899 -137 -41 -161 0
-899 -137 -47 -161 0
-899 -137 -107 -197 0
-899 -137 -113 -197 0
-899 -137 233 341 557 251 359 575 0
-899 -77 -131 -173 0
-899 -77 -137 -179 0
-904 215 0
-904 -143 0
-904 -131 84 0
-904 -131 174 0
-904 -131 -5 0
-904 -131 -23 0
-904 -131 -29 0
-904 -131 -35 0
-904 -131 -11 -137 0
-904 -131 -17 -137 0
-904 -131 -47 -155 0
-904 -131 -53 -155 0
-904 -131 -107 -191 0
-904 -131 -113 -191 0
-904 -131 -119 -191 0
-904 -131 245 353 569 263 371 587 0
-904 -137 84 0
-904 -137 180 0
-904 -137 -5 0
-904 -137 -23 0
-904 -137 -29 0
-904 -137 -35 0
-904 -137 -11 -143 0
-904 -137 -17 -143 0
-904 -137 -47 -161 0
-904 -137 -53 -161 0
-904 -137 -107 -197 0
-904 -137 -113 -197 0
-904 -137 -119 -197 0
-904 -137 251 359 575 269 377 593 0
-904 -83 -131 -173 0
-904 -83 -137 -179 0
-909 215 0
-909 -143 0
-909 -131 90 0
-909 -131 174 0
-909 -131 -5 0
-909 -131 -11 0
-909 -131 -29 0
-909 -131 -35 0
-909 -131 -17 -137 0
-909 -131 -23 -137 0
-909 -131 -53 -155 0
-909 -131 -59 -155 0
-909 -131 -107 -191 0
-909 -131 -113 -191 0
-909 -131 -119 -191 0
-909 -131 -125 -191 0
-909 -131 263 371 587 281 389 605 0
-909 -137 90 0
-909 -137 180 0
-909 -137 -5 0
-909 -137 -11 0
-909 -137 -29 0
-909 -137 -35 0
-909 -137 -17 -143 0
-909 -137 -23 -143 0
-909 -137 -53 -161 0
-909 -137 -59 -161 0
-909 -137 -107 -197 0
-909 -137 -113 -197 0
-909 -137 -119 -197 0
-909 -137 -125 -197 0
-909 -137 269 377 593 287 395 611 0
-909 -89 -131 -173 0
-909 -89 -137 -179 0
-914 215 0
-914 -143 0
-914 -131 96 0
-914 -131 174 0
-914 -131 -5 0
-914 -131 -11 0
-914 -131 -17 0
-914 -131 -35 0
-914 -131 -23 -137 0
-914 -131 -29 -137 0
-914 -131 -59 -155 0
-914 -131 -65 -155 0
-914 -131 -113 -191 0
-914 -131 -119 -191 0
-914 -131 -125 -191 0
-914 -131 281 389 605 299 407 623 0
-914 -137 96 0
-914 -137 180 0
-914 -137 -5 0
-914 -137 -11 0
-914 -137 -17 0
-914 -137 -35 0
-914 -137 -23 -143 0
-914 -137 -29 -143 0
-914 -137 -59 -161 0
-914 -137 -65 -161 0
-914 -137 -113 -197 0
-914 -137 -119 -197 0
-914 -137 -125 -197 0
-914 -137 287 395 611 305 413 629 0
-914 -95 -131 -173 0
-914 -95 -137 -179 0
-919 215 0
-919 -143 0
-919 -131 102 0
-919 -131 174 0
-919 -131 -5 0
-919 -131 -11 0
-919 -131 -17 0
-919 -131 -23 0
-919 -131 -29 -137 0
-919 -131 -35 -137 0
-919 -131 -65 -155 0
-919 -131 -71 -155 0
-919 -131 -119 -191 0
-919 -131 -125 -191 0
-919 -131 299 407 623 317 425 641 0
-919 -137 102 0
-919 -137 180 0
-919 -137 -5 0
-919 -137 -11 0
-919 -137 -17 0
-919 -137 -23 0
-919 -137 -29 -143 0
-919 -137 -35 -143 0
-919 -137 -65 -161 0
-919 -137 -71 -161 0
-919 -137 -119 -197 0
-919 -137 -125 -197 0
-919 -137 305 413 629 323 431 647 0
-919 -101 -131 -173 0
-919 -101 -137 -179 0
-924 215 0
-924 -161 0
-924 -149 78 0
-924 -149 174 0
-924 -149 -53 0
-924 -149 -59 0
-924 -149 -65 0
-924 -149 -71 0
-924 -149 -5 -137 0
-924 -149 -11 -137 0
-924 -149 -41 -155 0
-924 -149 -47 -155 0
-924 -149 -107 -191 0
-924 -149 -113 -191 0
-924 -149 227 335 551 245 353 569 0
-924 -155 78 0
-924 -155 180 0
-924 -155 -53 0
-924 -155 -59 0
-924 -155 -65 0
-924 -155 -71 0
-924 -155 -5 -143 0
-924 -155 -11 -143 0
-924 -155 -41 -161 0
-924 -155 -47 -161 0
-924 -155 -107 -197 0
-924 -155 -113 -197 0
-924 -155 233 341 557 251 359 575 0
-924 -77 -149 -173 0
-924 -77 -155 -179 0
-929 215 0
-929 -161 0
-929 -149 84 0
-929 -149 174 0
-929 -149 -41 0
-929 -149 -59 0
-929 -149 -65 0
-929 -149 -71 0
-929 -149 -11 -137 0
-929 -149 -17 -137 0
-929 -149 -47 -155 0
-929 -149 -53 -155 0
-929 -149 -107 -191 0
-929 -149 -113 -191 0
-929 -149 -119 -191 0
-929 -149 245 353 569 263 371 587 0
-929 -155 84 0
-929 -155 180 0
-929 -155 -41 0
-929 -155 -59 0
-929 -155 -65 0
-929 -155 -71 0
-929 -155 -11 -143 0
-929 -155 -17 -143 0
-929 -155 -47 -161 0
-929 -155 -53 -161 0
-929 -155 -107 -197 0
-929 -155 -113 -197 0
-929 -155 -119 -197 0
-929 -155 251 359 575 269 377 593 0
-929 -83 -149 -173 0
-929 -83 -155 -179 0
-934 215 0
-934 -161 0
-934 -149 90 0
-934 -149 174 0
-934 -149 -41 0
-934 -149 -47 0
-934 -149 -65 0
-934 -149 -71 0
-934 -149 -17 -137 0
-934 -149 -23 -137 0
-934 -149 -53 -155 0
-934 -149 -59 -155 0
-934 -149 -107 -191 0
-934 -149 -113 -191 0
-934 -149 -119 -191 0
-934 -149 -125 -191 0
-934 -149 263 371 587 281 389 605 0
-934 -155 90 0
-934 -155 180 0
-934 -155 -41 0
-934 -155 -47 0
-934 -155 -65 0
-934 -155 -71 0
-934 -155 -17 -143 0
-934 -155 -23 -143 0
-934 -155 -53 -161 0
-934 -155 -59 -161 0
-934 -155 -107 -197 0
-934 -155 -113 -197 0
-934 -155 -119 -197 0
-934 -155 -125 -197 0
-934 -155 269 377 593 287 395 611 0
-934 -89 -149 -173 0
-934 -89 -155 -179 0
-939 215 0
-939 -161 0
-939 -149 96 0
-939 -149 174 0
-939 -149 -41 0
-939 -149 -47 0
-939 -149 -53 0
-939 -149 -71 0
-939 -149 -23 -137 0
-939 -149 -29 -137 0
-939 -149 -59 -155 0
-939 -149 -65 -155 0
-939 -149 -113 -191 0
-939 -149 -119 -191 0
-939 -149 -125 -191 0
-939 -149 281 389 605 299 407 623 0
-939 -155 96 0
-939 -155 180 0
-939 -155 -41 0
-939 -155 -47 0
-939 -155 -53 0
-939 -155 -71 0
-939 -155 -23 -143 0
-939 -155 -29 -143 0
-939 -155 -59 -161 0
-939 -155 -65 -161 0
-939 -155 -113 -197 0
-939 -155 -119 -197 0
-939 -155 -125 -197 0
-939 -155 287 395 611 305 413 629 0
-939 -95 -149 -173 0
-939 -95 -155 -179 0
-944 215 0
-944 -161 0
-944 -149 102 0
-944 -149 174 0
-944 -149 -41 0
-944 -149 -47 0
-944 -149 -53 0
-944 -149 -59 0
-944 -149 -29 -137 0
-944 -149 -35 -137 0
-944 -149 -65 -155 0
-944 -149 -71 -155 0
-944 -149 -119 -191 0
-944 -149 -125 -191 0
-944 -149 299 407 623 317 425 641 0
-944 -155 102 0
-944 -155 180 0
-944 -155 -41 0
-944 -155 -47 0
-944 -155 -53 0
-944 -155 -59 0
-944 -155 -29 -143 0
-944 -155 -35 -143 0
-944 -155 -65 -161 0
-944 -155 -71 -161 0
-944 -155 -119 -197 0
-944 -155 -125 -197 0
-944 -155 305 413 629 323 431 647 0
-944 -101 -149 -173 0
-944 -101 -155 -179 0
-949 215 0
-949 -197 0
-949 -185 78 0
-949 -185 174 0
-949 -185 -119 0
-949 -185 -125 0
-949 -185 -5 -137 0
-949 -185 -11 -137 0
-949 -185 -41 -155 0
-949 -185 -47 -155 0
-949 -185 -107 -191 0
-949 -185 -113 -191 0
-949 -185 227 335 551 245 353 569 0
-949 -191 78 0
-949 -191 180 0
-949 -191 -119 0
-949 -191 -125 0
-949 -191 -5 -143 0
-949 -191 -11 -143 0
-949 -191 -41 -161 0
-949 -191 -47 -161 0
-949 -191 -107 -197 0
-949 -191 -113 -197 0
-949 -191 233 341 557 251 359 575 0
-949 -77 -185 -173 0
-949 -77 -191 -179 0
-954 215 0
-954 -197 0
-954 -185 84 0
-954 -185 174 0
-954 -185 -125 0
-954 -185 -11 -137 0
-954 -185 -17 -137 0
-954 -185 -47 -155 0
-954 -185 -53 -155 0
-954 -185 -107 -191 0
-954 -185 -113 -191 0
-954 -185 -119 -191 0
-954 -185 245 353 569 263 371 587 0
-954 -191 84 0
-954 -191 180 0
-954 -191 -125 0
-954 -191 -11 -143 0
-954 -191 -17 -143 0
-954 -191 -47 -161 0
-954 -191 -53 -161 0
-954 -191 -107 -197 0
-954 -191 -113 -197 0
-954 -191 -119 -197 0
-954 -191 251 359 575 269 377 593 0
-954 -83 -185 -173 0
-954 -83 -191 -179 0
-959 215 0
-959 -197 0
-959 -185 90 0
-959 -185 174 0
-959 -185 -17 -137 0
-959 -185 -23 -137 0
-959 -185 -53 -155 0
-959 -185 -59 -155 0
-959 -185 -107 -191 0
-959 -185 -113 -191 0
-959 -185 -119 -191 0
-959 -185 -125 -191 0
-959 -185 263 371 587 281 389 605 0
-959 -191 90 0
-959 -191 180 0
-959 -191 -17 -143 0
-959 -191 -23 -143 0
-959 -191 -53 -161 0
-959 -191 -59 -161 0
-959 -191 -107 -197 0
-959 -191 -113 -197 0
-959 -191 -119 -197 0
-959 -191 -125 -197 0
-959 -191 269 377 593 287 395 611 0
-959 -89 -185 -173 0
-959 -89 -191 -179 0
-964 215 0
-964 -197 0
-964 -185 96 0
-964 -185 174 0
-964 -185 -107 0
-964 -185 -23 -137 0
-964 -185 -29 -137 0
-964 -185 -59 -155 0
-964 -185 -65 -155 0
-964 -185 -113 -191 0
-964 -185 -119 -191 0
-964 -185 -125 -191 0
-964 -185 281 389 605 299 407 623 0
-964 -191 96 0
-964 -191 180 0
-964 -191 -107 0
-964 -191 -23 -143 0
-964 -191 -29 -143 0
-964 -191 -59 -161 0
-964 -191 -65 -161 0
-964 -191 -113 -197 0
-964 -191 -119 -197 0
-964 -191 -125 -197 0
-964 -191 287 395 611 305 413 629 0
-964 -95 -185 -173 0
-964 -95 -191 -179 0
-969 215 0
-969 -197 0
-969 -185 102 0
-969 -185 174 0
-969 -185 -107 0
-969 -185 -113 0
-969 -185 -29 -137 0
-969 -185 -35 -137 0
-969 -185 -65 -155 0
-969 -185 -71 -155 0
-969 -185 -119 -191 0
-969 -185 -125 -191 0
-969 -185 299 407 623 317 425 641 0
-969 -191 102 0
-969 -191 180 0
-969 -191 -107 0
-969 -191 -113 0
-969 -191 -29 -143 0
-969 -191 -35 -143 0
-969 -191 -65 -161 0
-969 -191 -71 -161 0
-969 -191 -119 -197 0
-969 -191 -125 -197 0
-969 -191 305 413 629 323 431 647 0
-969 -101 -185 -173 0
-969 -101 -191 -179 0
-974 215 0
-974 78 0
-974 168 0
-974 -77 -167 0
-974 -5 -131 0
-974 -11 -131 0
-974 -41 -149 0
-974 -47 -149 0
-974 -107 -185 0
-974 -113 -185 0
-979 215 0
-979 84 0
-979 168 0
-979 -83 -167 0
-979 -11 -131 0
-979 -17 -131 0
-979 -47 -149 0
-979 -53 -149 0
-979 -107 -185 0
-979 -113 -185 0
-979 -119 -185 0
-984 215 0
-984 90 0
-984 168 0
-984 -89 -167 0
-984 -17 -131 0
-984 -23 -131 0
-984 -53 -149 0
-984 -59 -149 0
-984 -107 -185 0
-984 -113 -185 0
-984 -119 -185 0
-984 -125 -185 0
-989 215 0
-989 96 0
-989 168 0
-989 -95 -167 0
-989 -23 -131 0
-989 -29 -131 0
-989 -59 -149 0
-989 -65 -149 0
-989 -113 -185 0
-989 -119 -185 0
-989 -125 -185 0
-994 215 0
-994 102 0
-994 168 0
-994 -101 -167 0
-994 -29 -131 0
-994 -35 -131 0
-994 -65 -149 0
-994 -71 -149 0
-994 -119 -185 0
-994 -125 -185 0
-999 221 0
-999 -143 0
-999 -131 108 0
-999 -131 192 0
-999 -131 -23 0
-999 -131 -29 0
-999 -131 -35 0
-999 -131 -5 -137 0
-999 -131 -11 -137 0
-999 -131 -17 -137 0
-999 -131 -41 -155 0
-999 -131 -47 -155 0
-999 -131 -53 -155 0
-999 -131 -77 -173 0
-999 -131 -83 -173 0
-999 -131 -89 -173 0
-999 -131 227 335 443 245 353 461 0
-999 -131 227 335 443 263 371 479 0
-999 -131 245 353 461 263 371 479 0
-999 -137 108 0
-999 -137 198 0
-999 -137 -23 0
-999 -137 -29 0
-999 -137 -35 0
-999 -137 -5 -143 0
-999 -137 -11 -143 0
-999 -137 -17 -143 0
-999 -137 -41 -161 0
-999 -137 -47 -161 0
-999 -137 -53 -161 0
-999 -137 -77 -179 0
-999 -137 -83 -179 0
-999 -137 -89 -179 0
-999 -137 233 341 449 251 359 467 0
-999 -137 233 341 449 269 377 485 0
-999 -137 251 359 467 269 377 485 0
-999 -107 -131 -191 0
-999 -107 -137 -197 0
-1004 221 0
-1004 -143 0
-1004 -131 114 0
-1004 -131 192 0
-1004 -131 -5 0
-1004 -131 -29 0
-1004 -131 -35 0
-1004 -131 -11 -137 0
-1004 -131 -17 -137 0
-1004 -131 -23 -137 0
-1004 -131 -47 -155 0
-1004 -131 -53 -155 0
-1004 -131 -59 -155 0
-1004 -131 -77 -173 0
-1004 -131 -83 -173 0
-1004 -131 -89 -173 0
-1004 -131 -95 -173 0
-1004 -131 245 353 461 263 371 479 0
-1004 -131 245 353 461 281 389 497 0
-1004 -131 263 371 479 281 389 497 0
-1004 -137 114 0
-1004 -137 198 0
-1004 -137 -5 0
-1004 -137 -29 0
-1004 -137 -35 0
-1004 -137 -11 -143 0
-1004 -137 -17 -143 0
-1004 -137 -23 -143 0
-1004 -137 -47 -161 0
-1004 -137 -53 -161 0
-1004 -137 -59 -161 0
-1004 -137 -77 -179 0
-1004 -137 -83 -179 0
-1004 -137 -89 -179 0
-1004 -137 -95 -179 0
-1004 -137 251 359 467 269 377 485 0
-1004 -137 251 359 467 287 395 503 0
-1004 -137 269 377 485 287 395 503 0
-1004 -113 -131 -191 0
-1004 -113 -137 -197 0
-1009 221 0
-1009 -143 0
-1009 -131 120 0
-1009 -131 192 0
-1009 -131 -5 0
-1009 -131 -11 0
-1009 -131 -35 0
-1009 -131 -17 -137 0
-1009 -131 -23 -137 0
-1009 -131 -29 -137 0
-1009 -131 -53 -155 0
-1009 -131 -59 -155 0
-1009 -131 -65 -155 0
-1009 -131 -83 -173 0
-1009 -131 -89 -173 0
-1009 -131 -95 -173 0
-1009 -131 -101 -173 0
-1009 -131 263 371 479 281 389 497 0
-1009 -131 263 371 479 299 407 515 0
-1009 -131 281 389 497 299 407 515 0
-1009 -137 120 0
-1009 -137 198 0
-1009 -137 -5 0
-1009 -137 -11 0
-1009 -137 -35 0
-1009 -137 -17 -143 0
-1009 -137 -23 -143 0
-1009 -137 -29 -143 0
-1009 -137 -53 -161 0
-1009 -137 -59 -161 0
-1009 -137 -65 -161 0
-1009 -137 -83 -179 0
-1009 -137 -89 -179 0
-1009 -137 -95 -179 0
-1009 -137 -101 -179 0
-1009 -137 269 377 485 287 395 503 0
-1009 -137 269 377 485 305 413 521 0
-1009 -137 287 395 503 305 413 521 0
-1009 -119 -131 -191 0
-1009 -119 -137 -197 0
-1014 221 0
-1014 -143 0
-1014 -131 126 0
-1014 -131 192 0
-1014 -131 -5 0
-1014 -131 -11 0
-1014 -131 -17 0
-1014 -131 -23 -137 0
-1014 -131 -29 -137 0
-1014 -131 -35 -137 0
-1014 -131 -59 -155 0
-1014 -131 -65 -155 0
-1014 -131 -71 -155 0
-1014 -131 -89 -173 0
-1014 -131 -95 -173 0
-1014 -131 -101 -173 0
-1014 -131 281 389 497 299 407 515 0
-1014 -131 281 389 497 317 425 533 0
-1014 -131 299 407 515 317 425 533 0
-1014 -137 126 0
-1014 -137 198 0
-1014 -137 -5 0
-1014 -137 -11 0
-1014 -137 -17 0
-1014 -137 -23 -143 0
-1014 -137 -29 -143 0
-1014 -137 -35 -143 0
-1014 -137 -59 -161 0
-1014 -137 -65 -161 0
-1014 -137 -71 -161 0
-1014 -137 -89 -179 0
-1014 -137 -95 -179 0
-1014 -137 -101 -179 0
-1014 -137 287 395 503 305 413 521 0
-1014 -137 287 395 503 323 431 539 0
-1014 -137 305 413 521 323 431 539 0
-1014 -125 -131 -191 0
-1014 -125 -137 -197 0
-1019 221 0
-1019 -161 0
-1019 -149 108 0
-1019 -149 192 0
-1019 -149 -59 0
-1019 -149 -65 0
-1019 -149 -71 0
-1019 -149 -5 -137 0
-1019 -149 -11 -137 0
-1019 -149 -17 -137 0
-1019 -149 -41 -155 0
-1019 -149 -47 -155 0
-1019 -149 -53 -155 0
-1019 -149 -77 -173 0
-1019 -149 -83 -173 0
-1019 -149 -89 -173 0
-1019 -149 227 335 443 245 353 461 0
-1019 -149 227 335 443 263 371 479 0
-1019 -149 245 353 461 263 371 479 0
-1019 -155 108 0
-1019 -155 198 0
-1019 -155 -59 0
-1019 -155 -65 0
-1019 -155 -71 0
-1019 -155 -5 -143 0
-1019 -155 -11 -143 0
-1019 -155 -17 -143 0
-1019 -155 -41 -161 0
-1019 -155 -47 -161 0
-1019 -155 -53 -161 0
-1019 -155 -77 -179 0
-1019 -155 -83 -179 0
-1019 -155 -89 -179 0
-1019 -155 233 341 449 251 359 467 0
-1019 -155 233 341 449 269 377 485 0
-1019 -155 251 359 467 269 377 485 0
-1019 -107 -149 -191 0
-1019 -107 -155 -197 0
-1024 221 0
-1024 -161 0
-1024 -149 114 0
-1024 -149 192 0
-1024 -149 -41 0
-1024 -149 -65 0
-1024 -149 -71 0
-1024 -149 -11 -137 0
-1024 -149 -17 -137 0
-1024 -149 -23 -137 0
-1024 -149 -47 -155 0
-1024 -149 -53 -155 0
-1024 -149 -59 -155 0
-1024 -149 -77 -173 0
-1024 -149 -83 -173 0
-1024 -149 -89 -173 0
-1024 -149 -95 -173 0
-1024 -149 245 353 461 263 371 479 0
-1024 -149 245 353 461 281 389 497 0
-1024 -149 263 371 479 281 389 497 0
-1024 -155 114 0
-1024 -155 198 0
-1024 -155 -41 0
-1024 -155 -65 0
-1024 -155 -71 0
-1024 -155 -11 -143 0
-1024 -155 -17 -143 0
-1024 -155 -23 -143 0
-1024 -155 -47 -161 0
-1024 -155 -53 -161 0
-1024 -155 -59 -161 0
-1024 -155 -77 -179 0
-1024 -155 -83 -179 0
-1024 -155 -89 -179 0
-1024 -155 -95 -179 0
-1024 -155 251 359 467 269 377 485 0
-1024 -155 251 359 467 287 395 503 0
-1024 -155 269 377 485 287 395 503 0
-1024 -113 -149 -191 0
-1024 -113 -155 -197 0
-1029 221 0
-1029 -161 0
-1029 -149 120 0
-1029 -149 192 0
-1029 -149 -41 0
-1029 -149 -47 0
-1029 -149 -71 0
-1029 -149 -17 -137 0
-1029 -149 -23 -137 0
-1029 -149 -29 -137 0
-1029 -149 -53 -155 0
-1029 -149 -59 -155 0
-1029 -149 -65 -155 0
-1029 -149 -83 -173 0
-1029 -149 -89 -173 0
-1029 -149 -95 -173 0
-1029 -149 -101 -173 0
-1029 -149 263 371 479 281 389 497 0
-1029 -149 263 371 479 299 407 515 0
-1029 -149 281 389 497 299 407 515 0
-1029 -155 120 0
-1029 -155 198 0
-1029 -155 -41 0
-1029 -155 -47 0
-1029 -155 -71 0
-1029 -155 -17 -143 0
-1029 -155 -23 -143 0
-1029 -155 -29 -143 0
-1029 -155 -53 -161 0
-1029 -155 -59 -161 0
-1029 -155 -65 -161 0
-1029 -155 -83 -179 0
-1029 -155 -89 -179 0
-1029 -155 -95 -179 0
-1029 -155 -101 -179 0
-1029 -155 269 377 485 287 395 503 0
-1029 -155 269 377 485 305 413 521 0
-1029 -155 287 395 503 305 413 521 0
-1029 -119 -149 -191 0
-1029 -119 -155 -197 0
-1034 221 0
-1034 -161 0
-1034 -149 126 0
-1034 -149 192 0
-1034 -149 -41 0
-1034 -149 -47 0
-1034 -149 -53 0
-1034 -149 -23 -137 0
-1034 -149 -29 -137 0
-1034 -149 -35 -137 0
-1034 -149 -59 -155 0
-1034 -149 -65 -155 0
-1034 -149 -71 -155 0
-1034 -149 -89 -173 0
-1034 -149 -95 -173 0
-1034 -149 -101 -173 0
-1034 -149 281 389 497 299 407 515 0
-1034 -149 281 389 497 317 425 533 0
-1034 -149 299 407 515 317 425 533 0
-1034 -155 126 0
-1034 -155 198 0
-1034 -155 -41 0
-1034 -155 -47 0
-1034 -155 -53 0
-1034 -155 -23 -143 0
-1034 -155 -29 -143 0
-1034 -155 -35 -143 0
-1034 -155 -59 -161 0
-1034 -155 -65 -161 0
-1034 -155 -71 -161 0
-1034 -155 -89 -179 0
-1034 -155 -95 -179 0
-1034 -155 -101 -179 0
-1034 -155 287 395 503 305 413 521 0
-1034 -155 287 395 503 323 431 539 0
-1034 -155 305 413 521 323 431 539 0
-1034 -125 -149 -191 0
-1034 -125 -155 -197 0
-1039 221 0
-1039 -179 0
-1039 -167 108 0
-1039 -167 192 0
-1039 -167 -95 0
-1039 -167 -101 0
-1039 -167 -5 -137 0
-1039 -167 -11 -137 0
-1039 -167 -17 -137 0
-1039 -167 -41 -155 0
-1039 -167 -47 -155 0
-1039 -167 -53 -155 0
-1039 -167 -77 -173 0
-1039 -167 -83 -173 0
-1039 -167 -89 -173 0
-1039 -167 227 335 443 245 353 461 0
-1039 -167 227 335 443 263 371 479 0
-1039 -167 245 353 461 263 371 479 0
-1039 -173 108 0
-1039 -173 198 0
-1039 -173 -95 0
-1039 -173 -101 0
-1039 -173 -5 -143 0
-1039 -173 -11 -143 0
-1039 -173 -17 -143 0
-1039 -173 -41 -161 0
-1039 -173 -47 -161 0
-1039 -173 -53 -161 0
-1039 -173 -77 -179 0
-1039 -173 -83 -179 0
-1039 -173 -89 -179 0
-1039 -173 233 341 449 251 359 467 0
-1039 -173 233 341 449 269 377 485 0
-1039 -173 251 359 467 269 377 485 0
-1039 -107 -167 -191 0
-1039 -107 -173 -197 0
-1044 221 0
-1044 -179 0
-1044 -167 114 0
-1044 -167 192 0
-1044 -167 -101 0
-1044 -167 -11 -137 0
-1044 -167 -17 -137 0
-1044 -167 -23 -137 0
-1044 -167 -47 -155 0
-1044 -167 -53 -155 0
-1044 -167 -59 -155 0
-1044 -167 -77 -173 0
-1044 -167 -83 -173 0
-1044 -167 -89 -173 0
-1044 -167 -95 -173 0
-1044 -167 245 353 461 263 371 479 0
-1044 -167 245 353 461 281 389 497 0
-1044 -167 263 371 479 281 389 497 0
-1044 -173 114 0
-1044 -173 198 0
-1044 -173 -101 0
-1044 -173 -11 -143 0
-1044 -173 -17 -143 0
-1044 -173 -23 -143 0
-1044 -173 -47 -161 0
-1044 -173 -53 -161 0
-1044 -173 -59 -161 0
-1044 -173 -77 -179 0
-1044 -173 -83 -179 0
-1044 -173 -89 -179 0
-1044 -173 -95 -179 0
-1044 -173 251 359 467 269 377 485 0
-1044 -173 251 359 467 287 395 503 0
-1044 -173 269 377 485 287 395 503 0
-1044 -113 -167 -191 0
-1044 -113 -173 -197 0
-1049 221 0
-1049 -179 0
-1049 -167 120 0
-1049 -167 192 0
-1049 -167 -77 0
-1049 -167 -17 -137 0
-1049 -167 -23 -137 0
-1049 -167 -29 -137 0
-1049 -167 -53 -155 0
-1049 -167 -59 -155 0
-1049 -167 -65 -155 0
-1049 -167 -83 -173 0
-1049 -167 -89 -173 0
-1049 -167 -95 -173 0
-1049 -167 -101 -173 0
-1049 -167 263 371 479 281 389 497 0
-1049 -167 263 371 479 299 407 515 0
-1049 -167 281 389 497 299 407 515 0
-1049 -173 120 0
-1049 -173 198 0
-1049 -173 -77 0
-1049 -173 -17 -143 0
-1049 -173 -23 -143 0
-1049 -173 -29 -143 0
-1049 -173 -53 -161 0
-1049 -173 -59 -161 0
-1049 -173 -65 -161 0
-1049 -173 -83 -179 0
-1049 -173 -89 -179 0
-1049 -173 -95 -179 0
-1049 -173 -101 -179 0
-1049 -173 269 377 485 287 395 503 0
-1049 -173 269 377 485 305 413 521 0
-1049 -173 287 395 503 305 413 521 0
-1049 -119 -167 -191 0
-1049 -119 -173 -197 0
-1054 221 0
-1054 -179 0
-1054 -167 126 0
-1054 -167 192 0
-1054 -167 -77 0
-1054 -167 -83 0
-1054 -167 -23 -137 0
-1054 -167 -29 -137 0
-1054 -167 -35 -137 0
-1054 -167 -59 -155 0
-1054 -167 -65 -155 0
-1054 -167 -71 -155 0
-1054 -167 -89 -173 0
-1054 -167 -95 -173 0
-1054 -167 -101 -173 0
-1054 -167 281 389 497 299 407 515 0
-1054 -167 281 389 497 317 425 533 0
-1054 -167 299 407 515 317 425 533 0
-1054 -173 126 0
-1054 -173 198 0
-1054 -173 -77 0
-1054 -173 -83 0
-1054 -173 -23 -143 0
-1054 -173 -29 -143 0
-1054 -173 -35 -143 0
-1054 -173 -59 -161 0
-1054 -173 -65 -161 0
-1054 -173 -71 -161 0
-1054 -173 -89 -179 0
-1054 -173 -95 -179 0
-1054 -173 -101 -179 0
-1054 -173 287 395 503 305 413 521 0
-1054 -173 287 395 503 323 431 539 0
-1054 -173 305 413 521 323 431 539 0
-1054 -125 -167 -191 0
-1054 -125 -173 -197 0
-1059 221 0
-1059 108 0
-1059 186 0
-1059 -107 -185 0
-1059 -5 -131 0
-1059 -11 -131 0
-1059 -17 -131 0
-1059 -41 -149 0
-1059 -47 -149 0
-1059 -53 -149 0
-1059 -77 -167 0
-1059 -83 -167 0
-1059 -89 -167 0
-1064 221 0
-1064 114 0
-1064 186 0
-1064 -113 -185 0
-1064 -11 -131 0
-1064 -17 -131 0
-1064 -23 -131 0
-1064 -47 -149 0
-1064 -53 -149 0
-1064 -59 -149 0
-1064 -77 -167 0
-1064 -83 -167 0
-1064 -89 -167 0
-1064 -95 -167 0
-1069 221 0
-1069 120 0
-1069 186 0
-1069 -119 -185 0
-1069 -17 -131 0
-1069 -23 -131 0
-1069 -29 -131 0
-1069 -53 -149 0
-1069 -59 -149 0
-1069 -65 -149 0
-1069 -83 -167 0
-1069 -89 -167 0
-1069 -95 -167 0
-1069 -101 -167 0
-1074 221 0
-1074 126 0
-1074 186 0
-1074 -125 -185 0
-1074 -23 -131 0
-1074 -29 -131 0
-1074 -35 -131 0
-1074 -59 -149 0
-1074 -65 -149 0
-1074 -71 -149 0
-1074 -89 -167 0
-1074 -95 -167 0
-1074 -101 -167 0
-775 -1 2 0
-775 -7 8 0
-775 -13 14 0
-775 -19 20 0
-775 -25 26 0
-775 -31 32 0
-775 -127 128 0
-775 -133 134 0
-775 -139 140 0
-780 -1 2 0
-780 -7 8 0
-780 -13 14 0
-780 -19 20 0
-780 -25 26 0
-780 -31 32 0
-780 -127 128 0
-780 -133 134 0
-780 -139 140 0
-785 -1 2 0
-785 -7 8 0
-785 -13 14 0
-785 -19 20 0
-785 -25 26 0
-785 -31 32 0
-785 -127 128 0
-785 -133 134 0
-785 -139 140 0
-790 -1 2 0
-790 -7 8 0
-790 -13 14 0
-790 -19 20 0
-790 -25 26 0
-790 -31 32 0
-790 -127 128 0
-790 -133 134 0
-790 -139 140 0
-795 -1 2 0
-795 -7 8 0
-795 -13 14 0
-795 -19 20 0
-795 -25 26 0
-795 -31 32 0
-795 -127 128 0
-795 -133 134 0
-795 -139 140 0
-800 -1 2 0
-800 -7 8 0
-800 -13 14 0
-800 -19 20 0
-800 -25 26 0
-800 -31 32 0
-800 -127 128 0
-800 -133 134 0
-800 -139 140 0
-805 -1 2 0
-805 -7 8 0
-805 -13 14 0
-805 -19 20 0
-805 -25 26 0
-805 -31 32 0
-805 -127 128 0
-805 -133 134 0
-805 -139 140 0
-810 -1 2 0
-810 -7 8 0
-810 -13 14 0
-810 -19 20 0
-810 -25 26 0
-810 -31 32 0
-810 -127 128 0
-810 -133 134 0
-810 -139 140 0
-815 -1 2 0
-815 -7 8 0
-815 -13 14 0
-815 -19 20 0
-815 -25 26 0
-815 -31 32 0
-815 -127 128 0
-815 -133 134 0
-815 -139 140 0
-820 -1 2 0
-820 -7 8 0
-820 -13 14 0
-820 -19 20 0
-820 -25 26 0
-820 -31 32 0
-820 -127 128 0
-820 -133 134 0
-820 -139 140 0
-825 -1 2 0
-825 -7 8 0
-825 -13 14 0
-825 -19 20 0
-825 -25 26 0
-825 -31 32 0
-825 -127 128 0
-825 -133 134 0
-825 -139 140 0
-830 -1 2 0
-830 -7 8 0
-830 -13 14 0
-830 -19 20 0
-830 -25 26 0
-830 -31 32 0
-830 -127 128 0
-830 -133 134 0
-830 -139 140 0
-835 -1 2 0
-835 -7 8 0
-835 -13 14 0
-835 -19 20 0
-835 -25 26 0
-835 -31 32 0
-835 -127 128 0
-835 -133 134 0
-835 -139 140 0
-840 -1 2 0
-840 -7 8 0
-840 -13 14 0
-840 -19 20 0
-840 -25 26 0
-840 -31 32 0
-840 -127 128 0
-840 -133 134 0
-840 -139 140 0
-845 -1 2 0
-845 -7 8 0
-845 -13 14 0
-845 -19 20 0
-845 -25 26 0
-845 -31 32 0
-845 -127 128 0
-845 -133 134 0
-845 -139 140 0
-850 -1 2 0
-850 -7 8 0
-850 -13 14 0
-850 -19 20 0
-850 -25 26 0
-850 -31 32 0
-850 -127 128 0
-850 -133 134 0
-850 -139 140 0
-855 -1 2 0
-855 -7 8 0
-855 -13 14 0
-855 -19 20 0
-855 -25 26 0
-855 -31 32 0
-855 -127 128 0
-855 -133 134 0
-855 -139 140 0
-860 -1 2 0
-860 -7 8 0
-860 -13 14 0
-860 -19 20 0
-860 -25 26 0
-860 -31 32 0
-860 -127 128 0
-860 -133 134 0
-860 -139 140 0
-865 -1 2 0
-865 -7 8 0
-865 -13 14 0
-865 -19 20 0
-865 -25 26 0
-865 -31 32 0
-865 -127 128 0
-865 -133 134 0
-865 -139 140 0
-870 -1 2 0
-870 -7 8 0
-870 -13 14 0
-870 -19 20 0
-870 -25 26 0
-870 -31 32 0
-870 -127 128 0
-870 -133 134 0
-870 -139 140 0
-875 -1 2 0
-875 -7 8 0
-875 -13 14 0
-875 -19 20 0
-875 -25 26 0
-875 -31 32 0
-875 -127 128 0
-875 -133 134 0
-875 -139 140 0
-880 -1 2 0
-880 -7 8 0
-880 -13 14 0
-880 -19 20 0
-880 -25 26 0
-880 -31 32 0
-880 -127 128 0
-880 -133 134 0
-880 -139 140 0
-885 -1 2 0
-885 -7 8 0
-885 -13 14 0
-885 -19 20 0
-885 -25 26 0
-885 -31 32 0
-885 -127 128 0
-885 -133 134 0
-885 -139 140 0
-890 -1 2 0
-890 -7 8 0
-890 -13 14 0
-890 -19 20 0
-890 -25 26 0
-890 -31 32 0
-890 -127 128 0
-890 -133 134 0
-890 -139 140 0
-895 -1 2 0
-895 -7 8 0
-895 -13 14 0
-895 -19 20 0
-895 -25 26 0
-895 -31 32 0
-895 -127 128 0
-895 -133 134 0
-895 -139 140 0
-900 -1 2 0
-900 -7 8 0
-900 -13 14 0
-900 -19 20 0
-900 -25 26 0
-900 -31 32 0
-900 -127 128 0
-900 -133 134 0
-900 -139 140 0
-905 -1 2 0
-905 -7 8 0
-905 -13 14 0
-905 -19 20 0
-905 -25 26 0
-905 -31 32 0
-905 -127 128 0
-905 -133 134 0
-905 -139 140 0
-910 -1 2 0
-910 -7 8 0
-910 -13 14 0
-910 -19 20 0
-910 -25 26 0
-910 -31 32 0
-910 -127 128 0
-910 -133 134 0
-910 -139 140 0
-915 -1 2 0
-915 -7 8 0
-915 -13 14 0
-915 -19 20 0
-915 -25 26 0
-915 -31 32 0
-915 -127 128 0
-915 -133 134 0
-915 -139 140 0
-920 -1 2 0
-920 -7 8 0
-920 -13 14 0
-920 -19 20 0
-920 -25 26 0
-920 -31 32 0
-920 -127 128 0
-920 -133 134 0
-920 -139 140 0
-925 -1 2 0
-925 -7 8 0
-925 -13 14 0
-925 -19 20 0
-925 -25 26 0
-925 -31 32 0
-925 -127 128 0
-925 -133 134 0
-925 -139 140 0
-930 -1 2 0
-930 -7 8 0
-930 -13 14 0
-930 -19 20 0
-930 -25 26 0
-930 -31 32 0
-930 -127 128 0
-930 -133 134 0
-930 -139 140 0
-935 -1 2 0
-935 -7 8 0
-935 -13 14 0
-935 -19 20 0
-935 -25 26 0
-935 -31 32 0
-935 -127 128 0
-935 -133 134 0
-935 -139 140 0
-940 -1 2 0
-940 -7 8 0
-940 -13 14 0
-940 -19 20 0
-940 -25 26 0
-940 -31 32 0
-940 -127 128 0
-940 -133 134 0
-940 -139 140 0
-945 -1 2 0
-945 -7 8 0
-945 -13 14 0
-945 -19 20 0
-945 -25 26 0
-945 -31 32 0
-945 -127 128 0
-945 -133 134 0
-945 -139 140 0
-950 -1 2 0
-950 -7 8 0
-950 -13 14 0
-950 -19 20 0
-950 -25 26 0
-950 -31 32 0
-950 -127 128 0
-950 -133 134 0
-950 -139 140 0
-955 -1 2 0
-955 -7 8 0
-955 -13 14 0
-955 -19 20 0
-955 -25 26 0
-955 -31 32 0
-955 -127 128 0
-955 -133 134 0
-955 -139 140 0
-960 -1 2 0
-960 -7 8 0
-960 -13 14 0
-960 -19 20 0
-960 -25 26 0
-960 -31 32 0
-960 -127 128 0
-960 -133 134 0
-960 -139 140 0
-965 -1 2 0
-965 -7 8 0
-965 -13 14 0
-965 -19 20 0
-965 -25 26 0
-965 -31 32 0
-965 -127 128 0
-965 -133 134 0
-965 -139 140 0
-970 -1 2 0
-970 -7 8 0
-970 -13 14 0
-970 -19 20 0
-970 -25 26 0
-970 -31 32 0
-970 -127 128 0
-970 -133 134 0
-970 -139 140 0
-975 -1 2 0
-975 -7 8 0
-975 -13 14 0
-975 -19 20 0
-975 -25 26 0
-975 -31 32 0
-975 -127 128 0
-975 -133 134 0
-975 -139 140 0
-980 -1 2 0
-980 -7 8 0
-980 -13 14 0
-980 -19 20 0
-980 -25 26 0
-980 -31 32 0
-980 -127 128 0
-980 -133 134 0
-980 -139 140 0
-985 -1 2 0
-985 -7 8 0
-985 -13 14 0
-985 -19 20 0
-985 -25 26 0
-985 -31 32 0
-985 -127 128 0
-985 -133 134 0
-985 -139 140 0
-990 -1 2 0
-990 -7 8 0
-990 -13 14 0
-990 -19 20 0
-990 -25 26 0
-990 -31 32 0
-990 -127 128 0
-990 -133 134 0
-990 -139 140 0
-995 -1 2 0
-995 -7 8 0
-995 -13 14 0
-995 -19 20 0
-995 -25 26 0
-995 -31 32 0
-995 -127 128 0
-995 -133 134 0
-995 -139 140 0
-1000 -1 2 0
-1000 -7 8 0
-1000 -13 14 0
-1000 -19 20 0
-1000 -25 26 0
-1000 -31 32 0
-1000 -127 128 0
-1000 -133 134 0
-1000 -139 140 0
-1005 -1 2 0
-1005 -7 8 0
-1005 -13 14 0
-1005 -19 20 0
-1005 -25 26 0
-1005 -31 32 0
-1005 -127 128 0
-1005 -133 134 0
-1005 -139 140 0
-1010 -1 2 0
-1010 -7 8 0
-1010 -13 14 0
-1010 -19 20 0
-1010 -25 26 0
-1010 -31 32 0
-1010 -127 128 0
-1010 -133 134 0
-1010 -139 140 0
-1015 -1 2 0
-1015 -7 8 0
-1015 -13 14 0
-1015 -19 20 0
-1015 -25 26 0
-1015 -31 32 0
-1015 -127 128 0
-1015 -133 134 0
-1015 -139 140 0
-1020 -1 2 0
-1020 -7 8 0
-1020 -13 14 0
-1020 -19 20 0
-1020 -25 26 0
-1020 -31 32 0
-1020 -127 128 0
-1020 -133 134 0
-1020 -139 140 0
-1025 -1 2 0
-1025 -7 8 0
-1025 -13 14 0
-1025 -19 20 0
-1025 -25 26 0
-1025 -31 32 0
-1025 -127 128 0
-1025 -133 134 0
-1025 -139 140 0
-1030 -1 2 0
-1030 -7 8 0
-1030 -13 14 0
-1030 -19 20 0
-1030 -25 26 0
-1030 -31 32 0
-1030 -127 128 0
-1030 -133 134 0
-1030 -139 140 0
-1035 -1 2 0
-1035 -7 8 0
-1035 -13 14 0
-1035 -19 20 0
-1035 -25 26 0
-1035 -31 32 0
-1035 -127 128 0
-1035 -133 134 0
-1035 -139 140 0
-1040 -1 2 0
-1040 -7 8 0
-1040 -13 14 0
-1040 -19 20 0
-1040 -25 26 0
-1040 -31 32 0
-1040 -127 128 0
-1040 -133 134 0
-1040 -139 140 0
-1045 -1 2 0
-1045 -7 8 0
-1045 -13 14 0
-1045 -19 20 0
-1045 -25 26 0
-1045 -31 32 0
-1045 -127 128 0
-1045 -133 134 0
-1045 -139 140 0
-1050 -1 2 0
-1050 -7 8 0
-1050 -13 14 0
-1050 -19 20 0
-1050 -25 26 0
-1050 -31 32 0
-1050 -127 128 0
-1050 -133 134 0
-1050 -139 140 0
-1055 -1 2 0
-1055 -7 8 0
-1055 -13 14 0
-1055 -19 20 0
-1055 -25 26 0
-1055 -31 32 0
-1055 -127 128 0
-1055 -133 134 0
-1055 -139 140 0
-1060 -1 2 0
-1060 -7 8 0
-1060 -13 14 0
-1060 -19 20 0
-1060 -25 26 0
-1060 -31 32 0
-1060 -127 128 0
-1060 -133 134 0
-1060 -139 140 0
-1065 -1 2 0
-1065 -7 8 0
-1065 -13 14 0
-1065 -19 20 0
-1065 -25 26 0
-1065 -31 32 0
-1065 -127 128 0
-1065 -133 134 0
-1065 -139 140 0
-1070 -1 2 0
-1070 -7 8 0
-1070 -13 14 0
-1070 -19 20 0
-1070 -25 26 0
-1070 -31 32 0
-1070 -127 128 0
-1070 -133 134 0
-1070 -139 140 0
-655 -37 38 0
-655 -43 44 0
-655 -49 50 0
-655 -55 56 0
-655 -61 62 0
-655 -67 68 0
-655 -145 146 0
-655 -151 152 0
-655 -157 158 0
-660 -37 38 0
-660 -43 44 0
-660 -49 50 0
-660 -55 56 0
-660 -61 62 0
-660 -67 68 0
-660 -145 146 0
-660 -151 152 0
-660 -157 158 0
-665 -37 38 0
-665 -43 44 0
-665 -49 50 0
-665 -55 56 0
-665 -61 62 0
-665 -67 68 0
-665 -145 146 0
-665 -151 152 0
-665 -157 158 0
-670 -37 38 0
-670 -43 44 0
-670 -49 50 0
-670 -55 56 0
-670 -61 62 0
-670 -67 68 0
-670 -145 146 0
-670 -151 152 0
-670 -157 158 0
-675 -37 38 0
-675 -43 44 0
-675 -49 50 0
-675 -55 56 0
-675 -61 62 0
-675 -67 68 0
-675 -145 146 0
-675 -151 152 0
-675 -157 158 0
-680 -37 38 0
-680 -43 44 0
-680 -49 50 0
-680 -55 56 0
-680 -61 62 0
-680 -67 68 0
-680 -145 146 0
-680 -151 152 0
-680 -157 158 0
-685 -37 38 0
-685 -43 44 0
-685 -49 50 0
-685 -55 56 0
-685 -61 62 0
-685 -67 68 0
-685 -145 146 0
-685 -151 152 0
-685 -157 158 0
-690 -37 38 0
-690 -43 44 0
-690 -49 50 0
-690 -55 56 0
-690 -61 62 0
-690 -67 68 0
-690 -145 146 0
-690 -151 152 0
-690 -157 158 0
-695 -37 38 0
-695 -43 44 0
-695 -49 50 0
-695 -55 56 0
-695 -61 62 0
-695 -67 68 0
-695 -145 146 0
-695 -151 152 0
-695 -157 158 0
-700 -37 38 0
-700 -43 44 0
-700 -49 50 0
-700 -55 56 0
-700 -61 62 0
-700 -67 68 0
-700 -145 146 0
-700 -151 152 0
-700 -157 158 0
-705 -37 38 0
-705 -43 44 0
-705 -49 50 0
-705 -55 56 0
-705 -61 62 0
-705 -67 68 0
-705 -145 146 0
-705 -151 152 0
-705 -157 158 0
-710 -37 38 0
-710 -43 44 0
-710 -49 50 0
-710 -55 56 0
-710 -61 62 0
-710 -67 68 0
-710 -145 146 0
-710 -151 152 0
-710 -157 158 0
-715 -37 38 0
-715 -43 44 0
-715 -49 50 0
-715 -55 56 0
-715 -61 62 0
-715 -67 68 0
-715 -145 146 0
-715 -151 152 0
-715 -157 158 0
-720 -37 38 0
-720 -43 44 0
-720 -49 50 0
-720 -55 56 0
-720 -61 62 0
-720 -67 68 0
-720 -145 146 0
-720 -151 152 0
-720 -157 158 0
-725 -37 38 0
-725 -43 44 0
-725 -49 50 0
-725 -55 56 0
-725 -61 62 0
-725 -67 68 0
-725 -145 146 0
-725 -151 152 0
-725 -157 158 0
-730 -37 38 0
-730 -43 44 0
-730 -49 50 0
-730 -55 56 0
-730 -61 62 0
-730 -67 68 0
-730 -145 146 0
-730 -151 152 0
-730 -157 158 0
-735 -37 38 0
-735 -43 44 0
-735 -49 50 0
-735 -55 56 0
-735 -61 62 0
-735 -67 68 0
-735 -145 146 0
-735 -151 152 0
-735 -157 158 0
-740 -37 38 0
-740 -43 44 0
-740 -49 50 0
-740 -55 56 0
-740 -61 62 0
-740 -67 68 0
-740 -145 146 0
-740 -151 152 0
-740 -157 158 0
-745 -37 38 0
-745 -43 44 0
-745 -49 50 0
-745 -55 56 0
-745 -61 62 0
-745 -67 68 0
-745 -145 146 0
-745 -151 152 0
-745 -157 158 0
-750 -37 38 0
-750 -43 44 0
-750 -49 50 0
-750 -55 56 0
-750 -61 62 0
-750 -67 68 0
-750 -145 146 0
-750 -151 152 0
-750 -157 158 0
-755 -37 38 0
-755 -43 44 0
-755 -49 50 0
-755 -55 56 0
-755 -61 62 0
-755 -67 68 0
-755 -145 146 0
-755 -151 152 0
-755 -157 158 0
-760 -37 38 0
-760 -43 44 0
-760 -49 50 0
-760 -55 56 0
-760 -61 62 0
-760 -67 68 0
-760 -145 146 0
-760 -151 152 0
-760 -157 158 0
-765 -37 38 0
-765 -43 44 0
-765 -49 50 0
-765 -55 56 0
-765 -61 62 0
-765 -67 68 0
-765 -145 146 0
-765 -151 152 0
-765 -157 158 0
-770 -37 38 0
-770 -43 44 0
-770 -49 50 0
-770 -55 56 0
-770 -61 62 0
-770 -67 68 0
-770 -145 146 0
-770 -151 152 0
-770 -157 158 0
-895 -37 38 0
-895 -43 44 0
-895 -49 50 0
-895 -55 56 0
-895 -61 62 0
-895 -67 68 0
-895 -145 146 0
-895 -151 152 0
-895 -157 158 0
-900 -37 38 0
-900 -43 44 0
-900 -49 50 0
-900 -55 56 0
-900 -61 62 0
-900 -67 68 0
-900 -145 146 0
-900 -151 152 0
-900 -157 158 0
-905 -37 38 0
-905 -43 44 0
-905 -49 50 0
-905 -55 56 0
-905 -61 62 0
-905 -67 68 0
-905 -145 146 0
-905 -151 152 0
-905 -157 158 0
-910 -37 38 0
-910 -43 44 0
-910 -49 50 0
-910 -55 56 0
-910 -61 62 0
-910 -67 68 0
-910 -145 146 0
-910 -151 152 0
-910 -157 158 0
-915 -37 38 0
-915 -43 44 0
-915 -49 50 0
-915 -55 56 0
-915 -61 62 0
-915 -67 68 0
-915 -145 146 0
-915 -151 152 0
-915 -157 158 0
-920 -37 38 0
-920 -43 44 0
-920 -49 50 0
-920 -55 56 0
-920 -61 62 0
-920 -67 68 0
-920 -145 146 0
-920 -151 152 0
-920 -157 158 0
-925 -37 38 0
-925 -43 44 0
-925 -49 50 0
-925 -55 56 0
-925 -61 62 0
-925 -67 68 0
-925 -145 146 0
-925 -151 152 0
-925 -157 158 0
-930 -37 38 0
-930 -43 44 0
-930 -49 50 0
-930 -55 56 0
-930 -61 62 0
-930 -67 68 0
-930 -145 146 0
-930 -151 152 0
-930 -157 158 0
-935 -37 38 0
-935 -43 44 0
-935 -49 50 0
-935 -55 56 0
-935 -61 62 0
-935 -67 68 0
-935 -145 146 0
-935 -151 152 0
-935 -157 158 0
-940 -37 38 0
-940 -43 44 0
-940 -49 50 0
-940 -55 56 0
-940 -61 62 0
-940 -67 68 0
-940 -145 146 0
-940 -151 152 0
-940 -157 158 0
-945 -37 38 0
-945 -43 44 0
-945 -49 50 0
-945 -55 56 0
-945 -61 62 0
-945 -67 68 0
-945 -145 146 0
-945 -151 152 0
-945 -157 158 0
-950 -37 38 0
-950 -43 44 0
-950 -49 50 0
-950 -55 56 0
-950 -61 62 0
-950 -67 68 0
-950 -145 146 0
-950 -151 152 0
-950 -157 158 0
-955 -37 38 0
-955 -43 44 0
-955 -49 50 0
-955 -55 56 0
-955 -61 62 0
-955 -67 68 0
-955 -145 146 0
-955 -151 152 0
-955 -157 158 0
-960 -37 38 0
-960 -43 44 0
-960 -49 50 0
-960 -55 56 0
-960 -61 62 0
-960 -67 68 0
-960 -145 146 0
-960 -151 152 0
-960 -157 158 0
-965 -37 38 0
-965 -43 44 0
-965 -49 50 0
-965 -55 56 0
-965 -61 62 0
-965 -67 68 0
-965 -145 146 0
-965 -151 152 0
-965 -157 158 0
-970 -37 38 0
-970 -43 44 0
-970 -49 50 0
-970 -55 56 0
-970 -61 62 0
-970 -67 68 0
-970 -145 146 0
-970 -151 152 0
-970 -157 158 0
-975 -37 38 0
-975 -43 44 0
-975 -49 50 0
-975 -55 56 0
-975 -61 62 0
-975 -67 68 0
-975 -145 146 0
-975 -151 152 0
-975 -157 158 0
-980 -37 38 0
-980 -43 44 0
-980 -49 50 0
-980 -55 56 0
-980 -61 62 0
-980 -67 68 0
-980 -145 146 0
-980 -151 152 0
-980 -157 158 0
-985 -37 38 0
-985 -43 44 0
-985 -49 50 0
-985 -55 56 0
-985 -61 62 0
-985 -67 68 0
-985 -145 146 0
-985 -151 152 0
-985 -157 158 0
-990 -37 38 0
-990 -43 44 0
-990 -49 50 0
-990 -55 56 0
-990 -61 62 0
-990 -67 68 0
-990 -145 146 0
-990 -151 152 0
-990 -157 158 0
-995 -37 38 0
-995 -43 44 0
-995 -49 50 0
-995 -55 56 0
-995 -61 62 0
-995 -67 68 0
-995 -145 146 0
-995 -151 152 0
-995 -157 158 0
-1000 -37 38 0
-1000 -43 44 0
-1000 -49 50 0
-1000 -55 56 0
-1000 -61 62 0
-1000 -67 68 0
-1000 -145 146 0
-1000 -151 152 0
-1000 -157 158 0
-1005 -37 38 0
-1005 -43 44 0
-1005 -49 50 0
-1005 -55 56 0
-1005 -61 62 0
-1005 -67 68 0
-1005 -145 146 0
-1005 -151 152 0
-1005 -157 158 0
-1010 -37 38 0
-1010 -43 44 0
-1010 -49 50 0
-1010 -55 56 0
-1010 -61 62 0
-1010 -67 68 0
-1010 -145 146 0
-1010 -151 152 0
-1010 -157 158 0
-1015 -37 38 0
-1015 -43 44 0
-1015 -49 50 0
-1015 -55 56 0
-1015 -61 62 0
-1015 -67 68 0
-1015 -145 146 0
-1015 -151 152 0
-1015 -157 158 0
-1020 -37 38 0
-1020 -43 44 0
-1020 -49 50 0
-1020 -55 56 0
-1020 -61 62 0
-1020 -67 68 0
-1020 -145 146 0
-1020 -151 152 0
-1020 -157 158 0
-1025 -37 38 0
-1025 -43 44 0
-1025 -49 50 0
-1025 -55 56 0
-1025 -61 62 0
-1025 -67 68 0
-1025 -145 146 0
-1025 -151 152 0
-1025 -157 158 0
-1030 -37 38 0
-1030 -43 44 0
-1030 -49 50 0
-1030 -55 56 0
-1030 -61 62 0
-1030 -67 68 0
-1030 -145 146 0
-1030 -151 152 0
-1030 -157 158 0
-1035 -37 38 0
-1035 -43 44 0
-1035 -49 50 0
-1035 -55 56 0
-1035 -61 62 0
-1035 -67 68 0
-1035 -145 146 0
-1035 -151 152 0
-1035 -157 158 0
-1040 -37 38 0
-1040 -43 44 0
-1040 -49 50 0
-1040 -55 56 0
-1040 -61 62 0
-1040 -67 68 0
-1040 -145 146 0
-1040 -151 152 0
-1040 -157 158 0
-1045 -37 38 0
-1045 -43 44 0
-1045 -49 50 0
-1045 -55 56 0
-1045 -61 62 0
-1045 -67 68 0
-1045 -145 146 0
-1045 -151 152 0
-1045 -157 158 0
-1050 -37 38 0
-1050 -43 44 0
-1050 -49 50 0
-1050 -55 56 0
-1050 -61 62 0
-1050 -67 68 0
-1050 -145 146 0
-1050 -151 152 0
-1050 -157 158 0
-1055 -37 38 0
-1055 -43 44 0
-1055 -49 50 0
-1055 -55 56 0
-1055 -61 62 0
-1055 -67 68 0
-1055 -145 146 0
-1055 -151 152 0
-1055 -157 158 0
-1060 -37 38 0
-1060 -43 44 0
-1060 -49 50 0
-1060 -55 56 0
-1060 -61 62 0
-1060 -67 68 0
-1060 -145 146 0
-1060 -151 152 0
-1060 -157 158 0
-1065 -37 38 0
-1065 -43 44 0
-1065 -49 50 0
-1065 -55 56 0
-1065 -61 62 0
-1065 -67 68 0
-1065 -145 146 0
-1065 -151 152 0
-1065 -157 158 0
-1070 -37 38 0
-1070 -43 44 0
-1070 -49 50 0
-1070 -55 56 0
-1070 -61 62 0
-1070 -67 68 0
-1070 -145 146 0
-1070 -151 152 0
-1070 -157 158 0
-655 -73 74 0
-655 -79 80 0
-655 -85 86 0
-655 -91 92 0
-655 -97 98 0
-655 -163 164 0
-655 -169 170 0
-655 -175 176 0
-660 -73 74 0
-660 -79 80 0
-660 -85 86 0
-660 -91 92 0
-660 -97 98 0
-660 -163 164 0
-660 -169 170 0
-660 -175 176 0
-665 -73 74 0
-665 -79 80 0
-665 -85 86 0
-665 -91 92 0
-665 -97 98 0
-665 -163 164 0
-665 -169 170 0
-665 -175 176 0
-670 -73 74 0
-670 -79 80 0
-670 -85 86 0
-670 -91 92 0
-670 -97 98 0
-670 -163 164 0
-670 -169 170 0
-670 -175 176 0
-675 -73 74 0
-675 -79 80 0
-675 -85 86 0
-675 -91 92 0
-675 -97 98 0
-675 -163 164 0
-675 -169 170 0
-675 -175 176 0
-680 -73 74 0
-680 -79 80 0
-680 -85 86 0
-680 -91 92 0
-680 -97 98 0
-680 -163 164 0
-680 -169 170 0
-680 -175 176 0
-685 -73 74 0
-685 -79 80 0
-685 -85 86 0
-685 -91 92 0
-685 -97 98 0
-685 -163 164 0
-685 -169 170 0
-685 -175 176 0
-690 -73 74 0
-690 -79 80 0
-690 -85 86 0
-690 -91 92 0
-690 -97 98 0
-690 -163 164 0
-690 -169 170 0
-690 -175 176 0
-695 -73 74 0
-695 -79 80 0
-695 -85 86 0
-695 -91 92 0
-695 -97 98 0
-695 -163 164 0
-695 -169 170 0
-695 -175 176 0
-700 -73 74 0
-700 -79 80 0
-700 -85 86 0
-700 -91 92 0
-700 -97 98 0
-700 -163 164 0
-700 -169 170 0
-700 -175 176 0
-705 -73 74 0
-705 -79 80 0
-705 -85 86 0
-705 -91 92 0
-705 -97 98 0
-705 -163 164 0
-705 -169 170 0
-705 -175 176 0
-710 -73 74 0
-710 -79 80 0
-710 -85 86 0
-710 -91 92 0
-710 -97 98 0
-710 -163 164 0
-710 -169 170 0
-710 -175 176 0
-715 -73 74 0
-715 -79 80 0
-715 -85 86 0
-715 -91 92 0
-715 -97 98 0
-715 -163 164 0
-715 -169 170 0
-715 -175 176 0
-720 -73 74 0
-720 -79 80 0
-720 -85 86 0
-720 -91 92 0
-720 -97 98 0
-720 -163 164 0
-720 -169 170 0
-720 -175 176 0
-725 -73 74 0
-725 -79 80 0
-725 -85 86 0
-725 -91 92 0
-725 -97 98 0
-725 -163 164 0
-725 -169 170 0
-725 -175 176 0
-730 -73 74 0
-730 -79 80 0
-730 -85 86 0
-730 -91 92 0
-730 -97 98 0
-730 -163 164 0
-730 -169 170 0
-730 -175 176 0
-735 -73 74 0
-735 -79 80 0
-735 -85 86 0
-735 -91 92 0
-735 -97 98 0
-735 -163 164 0
-735 -169 170 0
-735 -175 176 0
-740 -73 74 0
-740 -79 80 0
-740 -85 86 0
-740 -91 92 0
-740 -97 98 0
-740 -163 164 0
-740 -169 170 0
-740 -175 176 0
-745 -73 74 0
-745 -79 80 0
-745 -85 86 0
-745 -91 92 0
-745 -97 98 0
-745 -163 164 0
-745 -169 170 0
-745 -175 176 0
-750 -73 74 0
-750 -79 80 0
-750 -85 86 0
-750 -91 92 0
-750 -97 98 0
-750 -163 164 0
-750 -169 170 0
-750 -175 176 0
-755 -73 74 0
-755 -79 80 0
-755 -85 86 0
-755 -91 92 0
-755 -97 98 0
-755 -163 164 0
-755 -169 170 0
-755 -175 176 0
-760 -73 74 0
-760 -79 80 0
-760 -85 86 0
-760 -91 92 0
-760 -97 98 0
-760 -163 164 0
-760 -169 170 0
-760 -175 176 0
-765 -73 74 0
-765 -79 80 0
-765 -85 86 0
-765 -91 92 0
-765 -97 98 0
-765 -163 164 0
-765 -169 170 0
-765 -175 176 0
-770 -73 74 0
-770 -79 80 0
-770 -85 86 0
-770 -91 92 0
-770 -97 98 0
-770 -163 164 0
-770 -169 170 0
-770 -175 176 0
-775 -73 74 0
-775 -79 80 0
-775 -85 86 0
-775 -91 92 0
-775 -97 98 0
-775 -163 164 0
-775 -169 170 0
-775 -175 176 0
-780 -73 74 0
-780 -79 80 0
-780 -85 86 0
-780 -91 92 0
-780 -97 98 0
-780 -163 164 0
-780 -169 170 0
-780 -175 176 0
-785 -73 74 0
-785 -79 80 0
-785 -85 86 0
-785 -91 92 0
-785 -97 98 0
-785 -163 164 0
-785 -169 170 0
-785 -175 176 0
-790 -73 74 0
-790 -79 80 0
-790 -85 86 0
-790 -91 92 0
-790 -97 98 0
-790 -163 164 0
-790 -169 170 0
-790 -175 176 0
-795 -73 74 0
-795 -79 80 0
-795 -85 86 0
-795 -91 92 0
-795 -97 98 0
-795 -163 164 0
-795 -169 170 0
-795 -175 176 0
-800 -73 74 0
-800 -79 80 0
-800 -85 86 0
-800 -91 92 0
-800 -97 98 0
-800 -163 164 0
-800 -169 170 0
-800 -175 176 0
-805 -73 74 0
-805 -79 80 0
-805 -85 86 0
-805 -91 92 0
-805 -97 98 0
-805 -163 164 0
-805 -169 170 0
-805 -175 176 0
-810 -73 74 0
-810 -79 80 0
-810 -85 86 0
-810 -91 92 0
-810 -97 98 0
-810 -163 164 0
-810 -169 170 0
-810 -175 176 0
-815 -73 74 0
-815 -79 80 0
-815 -85 86 0
-815 -91 92 0
-815 -97 98 0
-815 -163 164 0
-815 -169 170 0
-815 -175 176 0
-820 -73 74 0
-820 -79 80 0
-820 -85 86 0
-820 -91 92 0
-820 -97 98 0
-820 -163 164 0
-820 -169 170 0
-820 -175 176 0
-825 -73 74 0
-825 -79 80 0
-825 -85 86 0
-825 -91 92 0
-825 -97 98 0
-825 -163 164 0
-825 -169 170 0
-825 -175 176 0
-830 -73 74 0
-830 -79 80 0
-830 -85 86 0
-830 -91 92 0
-830 -97 98 0
-830 -163 164 0
-830 -169 170 0
-830 -175 176 0
-835 -73 74 0
-835 -79 80 0
-835 -85 86 0
-835 -91 92 0
-835 -97 98 0
-835 -163 164 0
-835 -169 170 0
-835 -175 176 0
-840 -73 74 0
-840 -79 80 0
-840 -85 86 0
-840 -91 92 0
-840 -97 98 0
-840 -163 164 0
-840 -169 170 0
-840 -175 176 0
-845 -73 74 0
-845 -79 80 0
-845 -85 86 0
-845 -91 92 0
-845 -97 98 0
-845 -163 164 0
-845 -169 170 0
-845 -175 176 0
-850 -73 74 0
-850 -79 80 0
-850 -85 86 0
-850 -91 92 0
-850 -97 98 0
-850 -163 164 0
-850 -169 170 0
-850 -175 176 0
-855 -73 74 0
-855 -79 80 0
-855 -85 86 0
-855 -91 92 0
-855 -97 98 0
-855 -163 164 0
-855 -169 170 0
-855 -175 176 0
-860 -73 74 0
-860 -79 80 0
-860 -85 86 0
-860 -91 92 0
-860 -97 98 0
-860 -163 164 0
-860 -169 170 0
-860 -175 176 0
-865 -73 74 0
-865 -79 80 0
-865 -85 86 0
-865 -91 92 0
-865 -97 98 0
-865 -163 164 0
-865 -169 170 0
-865 -175 176 0
-870 -73 74 0
-870 -79 80 0
-870 -85 86 0
-870 -91 92 0
-870 -97 98 0
-870 -163 164 0
-870 -169 170 0
-870 -175 176 0
-875 -73 74 0
-875 -79 80 0
-875 -85 86 0
-875 -91 92 0
-875 -97 98 0
-875 -163 164 0
-875 -169 170 0
-875 -175 176 0
-880 -73 74 0
-880 -79 80 0
-880 -85 86 0
-880 -91 92 0
-880 -97 98 0
-880 -163 164 0
-880 -169 170 0
-880 -175 176 0
-885 -73 74 0
-885 -79 80 0
-885 -85 86 0
-885 -91 92 0
-885 -97 98 0
-885 -163 164 0
-885 -169 170 0
-885 -175 176 0
-890 -73 74 0
-890 -79 80 0
-890 -85 86 0
-890 -91 92 0
-890 -97 98 0
-890 -163 164 0
-890 -169 170 0
-890 -175 176 0
-995 -73 74 0
-995 -79 80 0
-995 -85 86 0
-995 -91 92 0
-995 -97 98 0
-995 -163 164 0
-995 -169 170 0
-995 -175 176 0
-1000 -73 74 0
-1000 -79 80 0
-1000 -85 86 0
-1000 -91 92 0
-1000 -97 98 0
-1000 -163 164 0
-1000 -169 170 0
-1000 -175 176 0
-1005 -73 74 0
-1005 -79 80 0
-1005 -85 86 0
-1005 -91 92 0
-1005 -97 98 0
-1005 -163 164 0
-1005 -169 170 0
-1005 -175 176 0
-1010 -73 74 0
-1010 -79 80 0
-1010 -85 86 0
-1010 -91 92 0
-1010 -97 98 0
-1010 -163 164 0
-1010 -169 170 0
-1010 -175 176 0
-1015 -73 74 0
-1015 -79 80 0
-1015 -85 86 0
-1015 -91 92 0
-1015 -97 98 0
-1015 -163 164 0
-1015 -169 170 0
-1015 -175 176 0
-1020 -73 74 0
-1020 -79 80 0
-1020 -85 86 0
-1020 -91 92 0
-1020 -97 98 0
-1020 -163 164 0
-1020 -169 170 0
-1020 -175 176 0
-1025 -73 74 0
-1025 -79 80 0
-1025 -85 86 0
-1025 -91 92 0
-1025 -97 98 0
-1025 -163 164 0
-1025 -169 170 0
-1025 -175 176 0
-1030 -73 74 0
-1030 -79 80 0
-1030 -85 86 0
-1030 -91 92 0
-1030 -97 98 0
-1030 -163 164 0
-1030 -169 170 0
-1030 -175 176 0
-1035 -73 74 0
-1035 -79 80 0
-1035 -85 86 0
-1035 -91 92 0
-1035 -97 98 0
-1035 -163 164 0
-1035 -169 170 0
-1035 -175 176 0
-1040 -73 74 0
-1040 -79 80 0
-1040 -85 86 0
-1040 -91 92 0
-1040 -97 98 0
-1040 -163 164 0
-1040 -169 170 0
-1040 -175 176 0
-1045 -73 74 0
-1045 -79 80 0
-1045 -85 86 0
-1045 -91 92 0
-1045 -97 98 0
-1045 -163 164 0
-1045 -169 170 0
-1045 -175 176 0
-1050 -73 74 0
-1050 -79 80 0
-1050 -85 86 0
-1050 -91 92 0
-1050 -97 98 0
-1050 -163 164 0
-1050 -169 170 0
-1050 -175 176 0
-1055 -73 74 0
-1055 -79 80 0
-1055 -85 86 0
-1055 -91 92 0
-1055 -97 98 0
-1055 -163 164 0
-1055 -169 170 0
-1055 -175 176 0
-1060 -73 74 0
-1060 -79 80 0
-1060 -85 86 0
-1060 -91 92 0
-1060 -97 98 0
-1060 -163 164 0
-1060 -169 170 0
-1060 -175 176 0
-1065 -73 74 0
-1065 -79 80 0
-1065 -85 86 0
-1065 -91 92 0
-1065 -97 98 0
-1065 -163 164 0
-1065 -169 170 0
-1065 -175 176 0
-1070 -73 74 0
-1070 -79 80 0
-1070 -85 86 0
-1070 -91 92 0
-1070 -97 98 0
-1070 -163 164 0
-1070 -169 170 0
-1070 -175 176 0
-655 -103 104 0
-655 -109 110 0
-655 -115 116 0
-655 -121 122 0
-655 -181 182 0
-655 -187 188 0
-655 -193 194 0
-660 -103 104 0
-660 -109 110 0
-660 -115 116 0
-660 -121 122 0
-660 -181 182 0
-660 -187 188 0
-660 -193 194 0
-665 -103 104 0
-665 -109 110 0
-665 -115 116 0
-665 -121 122 0
-665 -181 182 0
-665 -187 188 0
-665 -193 194 0
-670 -103 104 0
-670 -109 110 0
-670 -115 116 0
-670 -121 122 0
-670 -181 182 0
-670 -187 188 0
-670 -193 194 0
-675 -103 104 0
-675 -109 110 0
-675 -115 116 0
-675 -121 122 0
-675 -181 182 0
-675 -187 188 0
-675 -193 194 0
-680 -103 104 0
-680 -109 110 0
-680 -115 116 0
-680 -121 122 0
-680 -181 182 0
-680 -187 188 0
-680 -193 194 0
-685 -103 104 0
-685 -109 110 0
-685 -115 116 0
-685 -121 122 0
-685 -181 182 0
-685 -187 188 0
-685 -193 194 0
-690 -103 104 0
-690 -109 110 0
-690 -115 116 0
-690 -121 122 0
-690 -181 182 0
-690 -187 188 0
-690 -193 194 0
-695 -103 104 0
-695 -109 110 0
-695 -115 116 0
-695 -121 122 0
-695 -181 182 0
-695 -187 188 0
-695 -193 194 0
-700 -103 104 0
-700 -109 110 0
-700 -115 116 0
-700 -121 122 0
-700 -181 182 0
-700 -187 188 0
-700 -193 194 0
-705 -103 104 0
-705 -109 110 0
-705 -115 116 0
-705 -121 122 0
-705 -181 182 0
-705 -187 188 0
-705 -193 194 0
-710 -103 104 0
-710 -109 110 0
-710 -115 116 0
-710 -121 122 0
-710 -181 182 0
-710 -187 188 0
-710 -193 194 0
-715 -103 104 0
-715 -109 110 0
-715 -115 116 0
-715 -121 122 0
-715 -181 182 0
-715 -187 188 0
-715 -193 194 0
-720 -103 104 0
-720 -109 110 0
-720 -115 116 0
-720 -121 122 0
-720 -181 182 0
-720 -187 188 0
-720 -193 194 0
-725 -103 104 0
-725 -109 110 0
-725 -115 116 0
-725 -121 122 0
-725 -181 182 0
-725 -187 188 0
-725 -193 194 0
-730 -103 104 0
-730 -109 110 0
-730 -115 116 0
-730 -121 122 0
-730 -181 182 0
-730 -187 188 0
-730 -193 194 0
-735 -103 104 0
-735 -109 110 0
-735 -115 116 0
-735 -121 122 0
-735 -181 182 0
-735 -187 188 0
-735 -193 194 0
-740 -103 104 0
-740 -109 110 0
-740 -115 116 0
-740 -121 122 0
-740 -181 182 0
-740 -187 188 0
-740 -193 194 0
-745 -103 104 0
-745 -109 110 0
-745 -115 116 0
-745 -121 122 0
-745 -181 182 0
-745 -187 188 0
-745 -193 194 0
-750 -103 104 0
-750 -109 110 0
-750 -115 116 0
-750 -121 122 0
-750 -181 182 0
-750 -187 188 0
-750 -193 194 0
-755 -103 104 0
-755 -109 110 0
-755 -115 116 0
-755 -121 122 0
-755 -181 182 0
-755 -187 188 0
-755 -193 194 0
-760 -103 104 0
-760 -109 110 0
-760 -115 116 0
-760 -121 122 0
-760 -181 182 0
-760 -187 188 0
-760 -193 194 0
-765 -103 104 0
-765 -109 110 0
-765 -115 116 0
-765 -121 122 0
-765 -181 182 0
-765 -187 188 0
-765 -193 194 0
-770 -103 104 0
-770 -109 110 0
-770 -115 116 0
-770 -121 122 0
-770 -181 182 0
-770 -187 188 0
-770 -193 194 0
-775 -103 104 0
-775 -109 110 0
-775 -115 116 0
-775 -121 122 0
-775 -181 182 0
-775 -187 188 0
-775 -193 194 0
-780 -103 104 0
-780 -109 110 0
-780 -115 116 0
-780 -121 122 0
-780 -181 182 0
-780 -187 188 0
-780 -193 194 0
-785 -103 104 0
-785 -109 110 0
-785 -115 116 0
-785 -121 122 0
-785 -181 182 0
-785 -187 188 0
-785 -193 194 0
-790 -103 104 0
-790 -109 110 0
-790 -115 116 0
-790 -121 122 0
-790 -181 182 0
-790 -187 188 0
-790 -193 194 0
-795 -103 104 0
-795 -109 110 0
-795 -115 116 0
-795 -121 122 0
-795 -181 182 0
-795 -187 188 0
-795 -193 194 0
-800 -103 104 0
-800 -109 110 0
-800 -115 116 0
-800 -121 122 0
-800 -181 182 0
-800 -187 188 0
-800 -193 194 0
-805 -103 104 0
-805 -109 110 0
-805 -115 116 0
-805 -121 122 0
-805 -181 182 0
-805 -187 188 0
-805 -193 194 0
-810 -103 104 0
-810 -109 110 0
-810 -115 116 0
-810 -121 122 0
-810 -181 182 0
-810 -187 188 0
-810 -193 194 0
-815 -103 104 0
-815 -109 110 0
-815 -115 116 0
-815 -121 122 0
-815 -181 182 0
-815 -187 188 0
-815 -193 194 0
-820 -103 104 0
-820 -109 110 0
-820 -115 116 0
-820 -121 122 0
-820 -181 182 0
-820 -187 188 0
-820 -193 194 0
-825 -103 104 0
-825 -109 110 0
-825 -115 116 0
-825 -121 122 0
-825 -181 182 0
-825 -187 188 0
-825 -193 194 0
-830 -103 104 0
-830 -109 110 0
-830 -115 116 0
-830 -121 122 0
-830 -181 182 0
-830 -187 188 0
-830 -193 194 0
-835 -103 104 0
-835 -109 110 0
-835 -115 116 0
-835 -121 122 0
-835 -181 182 0
-835 -187 188 0
-835 -193 194 0
-840 -103 104 0
-840 -109 110 0
-840 -115 116 0
-840 -121 122 0
-840 -181 182 0
-840 -187 188 0
-840 -193 194 0
-845 -103 104 0
-845 -109 110 0
-845 -115 116 0
-845 -121 122 0
-845 -181 182 0
-845 -187 188 0
-845 -193 194 0
-850 -103 104 0
-850 -109 110 0
-850 -115 116 0
-850 -121 122 0
-850 -181 182 0
-850 -187 188 0
-850 -193 194 0
-855 -103 104 0
-855 -109 110 0
-855 -115 116 0
-855 -121 122 0
-855 -181 182 0
-855 -187 188 0
-855 -193 194 0
-860 -103 104 0
-860 -109 110 0
-860 -115 116 0
-860 -121 122 0
-860 -181 182 0
-860 -187 188 0
-860 -193 194 0
-865 -103 104 0
-865 -109 110 0
-865 -115 116 0
-865 -121 122 0
-865 -181 182 0
-865 -187 188 0
-865 -193 194 0
-870 -103 104 0
-870 -109 110 0
-870 -115 116 0
-870 -121 122 0
-870 -181 182 0
-870 -187 188 0
-870 -193 194 0
-875 -103 104 0
-875 -109 110 0
-875 -115 116 0
-875 -121 122 0
-875 -181 182 0
-875 -187 188 0
-875 -193 194 0
-880 -103 104 0
-880 -109 110 0
-880 -115 116 0
-880 -121 122 0
-880 -181 182 0
-880 -187 188 0
-880 -193 194 0
-885 -103 104 0
-885 -109 110 0
-885 -115 116 0
-885 -121 122 0
-885 -181 182 0
-885 -187 188 0
-885 -193 194 0
-890 -103 104 0
-890 -109 110 0
-890 -115 116 0
-890 -121 122 0
-890 -181 182 0
-890 -187 188 0
-890 -193 194 0
-895 -103 104 0
-895 -109 110 0
-895 -115 116 0
-895 -121 122 0
-895 -181 182 0
-895 -187 188 0
-895 -193 194 0
-900 -103 104 0
-900 -109 110 0
-900 -115 116 0
-900 -121 122 0
-900 -181 182 0
-900 -187 188 0
-900 -193 194 0
-905 -103 104 0
-905 -109 110 0
-905 -115 116 0
-905 -121 122 0
-905 -181 182 0
-905 -187 188 0
-905 -193 194 0
-910 -103 104 0
-910 -109 110 0
-910 -115 116 0
-910 -121 122 0
-910 -181 182 0
-910 -187 188 0
-910 -193 194 0
-915 -103 104 0
-915 -109 110 0
-915 -115 116 0
-915 -121 122 0
-915 -181 182 0
-915 -187 188 0
-915 -193 194 0
-920 -103 104 0
-920 -109 110 0
-920 -115 116 0
-920 -121 122 0
-920 -181 182 0
-920 -187 188 0
-920 -193 194 0
-925 -103 104 0
-925 -109 110 0
-925 -115 116 0
-925 -121 122 0
-925 -181 182 0
-925 -187 188 0
-925 -193 194 0
-930 -103 104 0
-930 -109 110 0
-930 -115 116 0
-930 -121 122 0
-930 -181 182 0
-930 -187 188 0
-930 -193 194 0
-935 -103 104 0
-935 -109 110 0
-935 -115 116 0
-935 -121 122 0
-935 -181 182 0
-935 -187 188 0
-935 -193 194 0
-940 -103 104 0
-940 -109 110 0
-940 -115 116 0
-940 -121 122 0
-940 -181 182 0
-940 -187 188 0
-940 -193 194 0
-945 -103 104 0
-945 -109 110 0
-945 -115 116 0
-945 -121 122 0
-945 -181 182 0
-945 -187 188 0
-945 -193 194 0
-950 -103 104 0
-950 -109 110 0
-950 -115 116 0
-950 -121 122 0
-950 -181 182 0
-950 -187 188 0
-950 -193 194 0
-955 -103 104 0
-955 -109 110 0
-955 -115 116 0
-955 -121 122 0
-955 -181 182 0
-955 -187 188 0
-955 -193 194 0
-960 -103 104 0
-960 -109 110 0
-960 -115 116 0
-960 -121 122 0
-960 -181 182 0
-960 -187 188 0
-960 -193 194 0
-965 -103 104 0
-965 -109 110 0
-965 -115 116 0
-965 -121 122 0
-965 -181 182 0
-965 -187 188 0
-965 -193 194 0
-970 -103 104 0
-970 -109 110 0
-970 -115 116 0
-970 -121 122 0
-970 -181 182 0
-970 -187 188 0
-970 -193 194 0
-975 -103 104 0
-975 -109 110 0
-975 -115 116 0
-975 -121 122 0
-975 -181 182 0
-975 -187 188 0
-975 -193 194 0
-980 -103 104 0
-980 -109 110 0
-980 -115 116 0
-980 -121 122 0
-980 -181 182 0
-980 -187 188 0
-980 -193 194 0
-985 -103 104 0
-985 -109 110 0
-985 -115 116 0
-985 -121 122 0
-985 -181 182 0
-985 -187 188 0
-985 -193 194 0
-990 -103 104 0
-990 -109 110 0
-990 -115 116 0
-990 -121 122 0
-990 -181 182 0
-990 -187 188 0
-990 -193 194 0
-776 -2 3 0
-776 -8 9 0
-776 -14 15 0
-776 -20 21 0
-776 -26 27 0
-776 -32 33 0
-776 -128 129 0
-776 -134 135 0
-776 -140 141 0
-781 -2 3 0
-781 -8 9 0
-781 -14 15 0
-781 -20 21 0
-781 -26 27 0
-781 -32 33 0
-781 -128 129 0
-781 -134 135 0
-781 -140 141 0
-786 -2 3 0
-786 -8 9 0
-786 -14 15 0
-786 -20 21 0
-786 -26 27 0
-786 -32 33 0
-786 -128 129 0
-786 -134 135 0
-786 -140 141 0
-791 -2 3 0
-791 -8 9 0
-791 -14 15 0
-791 -20 21 0
-791 -26 27 0
-791 -32 33 0
-791 -128 129 0
-791 -134 135 0
-791 -140 141 0
-796 -2 3 0
-796 -8 9 0
-796 -14 15 0
-796 -20 21 0
-796 -26 27 0
-796 -32 33 0
-796 -128 129 0
-796 -134 135 0
-796 -140 141 0
-801 -2 3 0
-801 -8 9 0
-801 -14 15 0
-801 -20 21 0
-801 -26 27 0
-801 -32 33 0
-801 -128 129 0
-801 -134 135 0
-801 -140 141 0
-806 -2 3 0
-806 -8 9 0
-806 -14 15 0
-806 -20 21 0
-806 -26 27 0
-806 -32 33 0
-806 -128 129 0
-806 -134 135 0
-806 -140 141 0
-811 -2 3 0
-811 -8 9 0
-811 -14 15 0
-811 -20 21 0
-811 -26 27 0
-811 -32 33 0
-811 -128 129 0
-811 -134 135 0
-811 -140 141 0
-816 -2 3 0
-816 -8 9 0
-816 -14 15 0
-816 -20 21 0
-816 -26 27 0
-816 -32 33 0
-816 -128 129 0
-816 -134 135 0
-816 -140 141 0
-821 -2 3 0
-821 -8 9 0
-821 -14 15 0
-821 -20 21 0
-821 -26 27 0
-821 -32 33 0
-821 -128 129 0
-821 -134 135 0
-821 -140 141 0
-826 -2 3 0
-826 -8 9 0
-826 -14 15 0
-826 -20 21 0
-826 -26 27 0
-826 -32 33 0
-826 -128 129 0
-826 -134 135 0
-826 -140 141 0
-831 -2 3 0
-831 -8 9 0
-831 -14 15 0
-831 -20 21 0
-831 -26 27 0
-831 -32 33 0
-831 -128 129 0
-831 -134 135 0
-831 -140 141 0
-836 -2 3 0
-836 -8 9 0
-836 -14 15 0
-836 -20 21 0
-836 -26 27 0
-836 -32 33 0
-836 -128 129 0
-836 -134 135 0
-836 -140 141 0
-841 -2 3 0
-841 -8 9 0
-841 -14 15 0
-841 -20 21 0
-841 -26 27 0
-841 -32 33 0
-841 -128 129 0
-841 -134 135 0
-841 -140 141 0
-846 -2 3 0
-846 -8 9 0
-846 -14 15 0
-846 -20 21 0
-846 -26 27 0
-846 -32 33 0
-846 -128 129 0
-846 -134 135 0
-846 -140 141 0
-851 -2 3 0
-851 -8 9 0
-851 -14 15 0
-851 -20 21 0
-851 -26 27 0
-851 -32 33 0
-851 -128 129 0
-851 -134 135 0
-851 -140 141 0
-856 -2 3 0
-856 -8 9 0
-856 -14 15 0
-856 -20 21 0
-856 -26 27 0
-856 -32 33 0
-856 -128 129 0
-856 -134 135 0
-856 -140 141 0
-861 -2 3 0
-861 -8 9 0
-861 -14 15 0
-861 -20 21 0
-861 -26 27 0
-861 -32 33 0
-861 -128 129 0
-861 -134 135 0
-861 -140 141 0
-866 -2 3 0
-866 -8 9 0
-866 -14 15 0
-866 -20 21 0
-866 -26 27 0
-866 -32 33 0
-866 -128 129 0
-866 -134 135 0
-866 -140 141 0
-871 -2 3 0
-871 -8 9 0
-871 -14 15 0
-871 -20 21 0
-871 -26 27 0
-871 -32 33 0
-871 -128 129 0
-871 -134 135 0
-871 -140 141 0
-876 -2 3 0
-876 -8 9 0
-876 -14 15 0
-876 -20 21 0
-876 -26 27 0
-876 -32 33 0
-876 -128 129 0
-876 -134 135 0
-876 -140 141 0
-881 -2 3 0
-881 -8 9 0
-881 -14 15 0
-881 -20 21 0
-881 -26 27 0
-881 -32 33 0
-881 -128 129 0
-881 -134 135 0
-881 -140 141 0
-886 -2 3 0
-886 -8 9 0
-886 -14 15 0
-886 -20 21 0
-886 -26 27 0
-886 -32 33 0
-886 -128 129 0
-886 -134 135 0
-886 -140 141 0
-891 -2 3 0
-891 -8 9 0
-891 -14 15 0
-891 -20 21 0
-891 -26 27 0
-891 -32 33 0
-891 -128 129 0
-891 -134 135 0
-891 -140 141 0
-896 -2 3 0
-896 -8 9 0
-896 -14 15 0
-896 -20 21 0
-896 -26 27 0
-896 -32 33 0
-896 -128 129 0
-896 -134 135 0
-896 -140 141 0
-901 -2 3 0
-901 -8 9 0
-901 -14 15 0
-901 -20 21 0
-901 -26 27 0
-901 -32 33 0
-901 -128 129 0
-901 -134 135 0
-901 -140 141 0
-906 -2 3 0
-906 -8 9 0
-906 -14 15 0
-906 -20 21 0
-906 -26 27 0
-906 -32 33 0
-906 -128 129 0
-906 -134 135 0
-906 -140 141 0
-911 -2 3 0
-911 -8 9 0
-911 -14 15 0
-911 -20 21 0
-911 -26 27 0
-911 -32 33 0
-911 -128 129 0
-911 -134 135 0
-911 -140 141 0
-916 -2 3 0
-916 -8 9 0
-916 -14 15 0
-916 -20 21 0
-916 -26 27 0
-916 -32 33 0
-916 -128 129 0
-916 -134 135 0
-916 -140 141 0
-921 -2 3 0
-921 -8 9 0
-921 -14 15 0
-921 -20 21 0
-921 -26 27 0
-921 -32 33 0
-921 -128 129 0
-921 -134 135 0
-921 -140 141 0
-926 -2 3 0
-926 -8 9 0
-926 -14 15 0
-926 -20 21 0
-926 -26 27 0
-926 -32 33 0
-926 -128 129 0
-926 -134 135 0
-926 -140 141 0
-931 -2 3 0
-931 -8 9 0
-931 -14 15 0
-931 -20 21 0
-931 -26 27 0
-931 -32 33 0
-931 -128 129 0
-931 -134 135 0
-931 -140 141 0
-936 -2 3 0
-936 -8 9 0
-936 -14 15 0
-936 -20 21 0
-936 -26 27 0
-936 -32 33 0
-936 -128 129 0
-936 -134 135 0
-936 -140 141 0
-941 -2 3 0
-941 -8 9 0
-941 -14 15 0
-941 -20 21 0
-941 -26 27 0
-941 -32 33 0
-941 -128 129 0
-941 -134 135 0
-941 -140 141 0
-946 -2 3 0
-946 -8 9 0
-946 -14 15 0
-946 -20 21 0
-946 -26 27 0
-946 -32 33 0
-946 -128 129 0
-946 -134 135 0
-946 -140 141 0
-951 -2 3 0
-951 -8 9 0
-951 -14 15 0
-951 -20 21 0
-951 -26 27 0
-951 -32 33 0
-951 -128 129 0
-951 -134 135 0
-951 -140 141 0
-956 -2 3 0
-956 -8 9 0
-956 -14 15 0
-956 -20 21 0
-956 -26 27 0
-956 -32 33 0
-956 -128 129 0
-956 -134 135 0
-956 -140 141 0
-961 -2 3 0
-961 -8 9 0
-961 -14 15 0
-961 -20 21 0
-961 -26 27 0
-961 -32 33 0
-961 -128 129 0
-961 -134 135 0
-961 -140 141 0
-966 -2 3 0
-966 -8 9 0
-966 -14 15 0
-966 -20 21 0
-966 -26 27 0
-966 -32 33 0
-966 -128 129 0
-966 -134 135 0
-966 -140 141 0
-971 -2 3 0
-971 -8 9 0
-971 -14 15 0
-971 -20 21 0
-971 -26 27 0
-971 -32 33 0
-971 -128 129 0
-971 -134 135 0
-971 -140 141 0
-976 -2 3 0
-976 -8 9 0
-976 -14 15 0
-976 -20 21 0
-976 -26 27 0
-976 -32 33 0
-976 -128 129 0
-976 -134 135 0
-976 -140 141 0
-981 -2 3 0
-981 -8 9 0
-981 -14 15 0
-981 -20 21 0
-981 -26 27 0
-981 -32 33 0
-981 -128 129 0
-981 -134 135 0
-981 -140 141 0
-986 -2 3 0
-986 -8 9 0
-986 -14 15 0
-986 -20 21 0
-986 -26 27 0
-986 -32 33 0
-986 -128 129 0
-986 -134 135 0
-986 -140 141 0
-991 -2 3 0
-991 -8 9 0
-991 -14 15 0
-991 -20 21 0
-991 -26 27 0
-991 -32 33 0
-991 -128 129 0
-991 -134 135 0
-991 -140 141 0
-996 -2 3 0
-996 -8 9 0
-996 -14 15 0
-996 -20 21 0
-996 -26 27 0
-996 -32 33 0
-996 -128 129 0
-996 -134 135 0
-996 -140 141 0
-1001 -2 3 0
-1001 -8 9 0
-1001 -14 15 0
-1001 -20 21 0
-1001 -26 27 0
-1001 -32 33 0
-1001 -128 129 0
-1001 -134 135 0
-1001 -140 141 0
-1006 -2 3 0
-1006 -8 9 0
-1006 -14 15 0
-1006 -20 21 0
-1006 -26 27 0
-1006 -32 33 0
-1006 -128 129 0
-1006 -134 135 0
-1006 -140 141 0
-1011 -2 3 0
-1011 -8 9 0
-1011 -14 15 0
-1011 -20 21 0
-1011 -26 27 0
-1011 -32 33 0
-1011 -128 129 0
-1011 -134 135 0
-1011 -140 141 0
-1016 -2 3 0
-1016 -8 9 0
-1016 -14 15 0
-1016 -20 21 0
-1016 -26 27 0
-1016 -32 33 0
-1016 -128 129 0
-1016 -134 135 0
-1016 -140 141 0
-1021 -2 3 0
-1021 -8 9 0
-1021 -14 15 0
-1021 -20 21 0
-1021 -26 27 0
-1021 -32 33 0
-1021 -128 129 0
-1021 -134 135 0
-1021 -140 141 0
-1026 -2 3 0
-1026 -8 9 0
-1026 -14 15 0
-1026 -20 21 0
-1026 -26 27 0
-1026 -32 33 0
-1026 -128 129 0
-1026 -134 135 0
-1026 -140 141 0
-1031 -2 3 0
-1031 -8 9 0
-1031 -14 15 0
-1031 -20 21 0
-1031 -26 27 0
-1031 -32 33 0
-1031 -128 129 0
-1031 -134 135 0
-1031 -140 141 0
-1036 -2 3 0
-1036 -8 9 0
-1036 -14 15 0
-1036 -20 21 0
-1036 -26 27 0
-1036 -32 33 0
-1036 -128 129 0
-1036 -134 135 0
-1036 -140 141 0
-1041 -2 3 0
-1041 -8 9 0
-1041 -14 15 0
-1041 -20 21 0
-1041 -26 27 0
-1041 -32 33 0
-1041 -128 129 0
-1041 -134 135 0
-1041 -140 141 0
-1046 -2 3 0
-1046 -8 9 0
-1046 -14 15 0
-1046 -20 21 0
-1046 -26 27 0
-1046 -32 33 0
-1046 -128 129 0
-1046 -134 135 0
-1046 -140 141 0
-1051 -2 3 0
-1051 -8 9 0
-1051 -14 15 0
-1051 -20 21 0
-1051 -26 27 0
-1051 -32 33 0
-1051 -128 129 0
-1051 -134 135 0
-1051 -140 141 0
-1056 -2 3 0
-1056 -8 9 0
-1056 -14 15 0
-1056 -20 21 0
-1056 -26 27 0
-1056 -32 33 0
-1056 -128 129 0
-1056 -134 135 0
-1056 -140 141 0
-1061 -2 3 0
-1061 -8 9 0
-1061 -14 15 0
-1061 -20 21 0
-1061 -26 27 0
-1061 -32 33 0
-1061 -128 129 0
-1061 -134 135 0
-1061 -140 141 0
-1066 -2 3 0
-1066 -8 9 0
-1066 -14 15 0
-1066 -20 21 0
-1066 -26 27 0
-1066 -32 33 0
-1066 -128 129 0
-1066 -134 135 0
-1066 -140 141 0
-1071 -2 3 0
-1071 -8 9 0
-1071 -14 15 0
-1071 -20 21 0
-1071 -26 27 0
-1071 -32 33 0
-1071 -128 129 0
-1071 -134 135 0
-1071 -140 141 0
-656 -38 39 0
-656 -44 45 0
-656 -50 51 0
-656 -56 57 0
-656 -62 63 0
-656 -68 69 0
-656 -146 147 0
-656 -152 153 0
-656 -158 159 0
-661 -38 39 0
-661 -44 45 0
-661 -50 51 0
-661 -56 57 0
-661 -62 63 0
-661 -68 69 0
-661 -146 147 0
-661 -152 153 0
-661 -158 159 0
-666 -38 39 0
-666 -44 45 0
-666 -50 51 0
-666 -56 57 0
-666 -62 63 0
-666 -68 69 0
-666 -146 147 0
-666 -152 153 0
-666 -158 159 0
-671 -38 39 0
-671 -44 45 0
-671 -50 51 0
-671 -56 57 0
-671 -62 63 0
-671 -68 69 0
-671 -146 147 0
-671 -152 153 0
-671 -158 159 0
-676 -38 39 0
-676 -44 45 0
-676 -50 51 0
-676 -56 57 0
-676 -62 63 0
-676 -68 69 0
-676 -146 147 0
-676 -152 153 0
-676 -158 159 0
-681 -38 39 0
-681 -44 45 0
-681 -50 51 0
-681 -56 57 0
-681 -62 63 0
-681 -68 69 0
-681 -146 147 0
-681 -152 153 0
-681 -158 159 0
-686 -38 39 0
-686 -44 45 0
-686 -50 51 0
-686 -56 57 0
-686 -62 63 0
-686 -68 69 0
-686 -146 147 0
-686 -152 153 0
-686 -158 159 0
-691 -38 39 0
-691 -44 45 0
-691 -50 51 0
-691 -56 57 0
-691 -62 63 0
-691 -68 69 0
-691 -146 147 0
-691 -152 153 0
-691 -158 159 0
-696 -38 39 0
-696 -44 45 0
-696 -50 51 0
-696 -56 57 0
-696 -62 63 0
-696 -68 69 0
-696 -146 147 0
-696 -152 153 0
-696 -158 159 0
-701 -38 39 0
-701 -44 45 0
-701 -50 51 0
-701 -56 57 0
-701 -62 63 0
-701 -68 69 0
-701 -146 147 0
-701 -152 153 0
-701 -158 159 0
-706 -38 39 0
-706 -44 45 0
-706 -50 51 0
-706 -56 57 0
-706 -62 63 0
-706 -68 69 0
-706 -146 147 0
-706 -152 153 0
-706 -158 159 0
-711 -38 39 0
-711 -44 45 0
-711 -50 51 0
-711 -56 57 0
-711 -62 63 0
-711 -68 69 0
-711 -146 147 0
-711 -152 153 0
-711 -158 159 0
-716 -38 39 0
-716 -44 45 0
-716 -50 51 0
-716 -56 57 0
-716 -62 63 0
-716 -68 69 0
-716 -146 147 0
-716 -152 153 0
-716 -158 159 0
-721 -38 39 0
-721 -44 45 0
-721 -50 51 0
-721 -56 57 0
-721 -62 63 0
-721 -68 69 0
-721 -146 147 0
-721 -152 153 0
-721 -158 159 0
-726 -38 39 0
-726 -44 45 0
-726 -50 51 0
-726 -56 57 0
-726 -62 63 0
-726 -68 69 0
-726 -146 147 0
-726 -152 153 0
-726 -158 159 0
-731 -38 39 0
-731 -44 45 0
-731 -50 51 0
-731 -56 57 0
-731 -62 63 0
-731 -68 69 0
-731 -146 147 0
-731 -152 153 0
-731 -158 159 0
-736 -38 39 0
-736 -44 45 0
-736 -50 51 0
-736 -56 57 0
-736 -62 63 0
-736 -68 69 0
-736 -146 147 0
-736 -152 153 0
-736 -158 159 0
-741 -38 39 0
-741 -44 45 0
-741 -50 51 0
-741 -56 57 0
-741 -62 63 0
-741 -68 69 0
-741 -146 147 0
-741 -152 153 0
-741 -158 159 0
-746 -38 39 0
-746 -44 45 0
-746 -50 51 0
-746 -56 57 0
-746 -62 63 0
-746 -68 69 0
-746 -146 147 0
-746 -152 153 0
-746 -158 159 0
-751 -38 39 0
-751 -44 45 0
-751 -50 51 0
-751 -56 57 0
-751 -62 63 0
-751 -68 69 0
-751 -146 147 0
-751 -152 153 0
-751 -158 159 0
-756 -38 39 0
-756 -44 45 0
-756 -50 51 0
-756 -56 57 0
-756 -62 63 0
-756 -68 69 0
-756 -146 147 0
-756 -152 153 0
-756 -158 159 0
-761 -38 39 0
-761 -44 45 0
-761 -50 51 0
-761 -56 57 0
-761 -62 63 0
-761 -68 69 0
-761 -146 147 0
-761 -152 153 0
-761 -158 159 0
-766 -38 39 0
-766 -44 45 0
-766 -50 51 0
-766 -56 57 0
-766 -62 63 0
-766 -68 69 0
-766 -146 147 0
-766 -152 153 0
-766 -158 159 0
-771 -38 39 0
-771 -44 45 0
-771 -50 51 0
-771 -56 57 0
-771 -62 63 0
-771 -68 69 0
-771 -146 147 0
-771 -152 153 0
-771 -158 159 0
-896 -38 39 0
-896 -44 45 0
-896 -50 51 0
-896 -56 57 0
-896 -62 63 0
-896 -68 69 0
-896 -146 147 0
-896 -152 153 0
-896 -158 159 0
-901 -38 39 0
-901 -44 45 0
-901 -50 51 0
-901 -56 57 0
-901 -62 63 0
-901 -68 69 0
-901 -146 147 0
-901 -152 153 0
-901 -158 159 0
-906 -38 39 0
-906 -44 45 0
-906 -50 51 0
-906 -56 57 0
-906 -62 63 0
-906 -68 69 0
-906 -146 147 0
-906 -152 153 0
-906 -158 159 0
-911 -38 39 0
-911 -44 45 0
-911 -50 51 0
-911 -56 57 0
-911 -62 63 0
-911 -68 69 0
-911 -146 147 0
-911 -152 153 0
-911 -158 159 0
-916 -38 39 0
-916 -44 45 0
-916 -50 51 0
-916 -56 57 0
-916 -62 63 0
-916 -68 69 0
-916 -146 147 0
-916 -152 153 0
-916 -158 159 0
-921 -38 39 0
-921 -44 45 0
-921 -50 51 0
-921 -56 57 0
-921 -62 63 0
-921 -68 69 0
-921 -146 147 0
-921 -152 153 0
-921 -158 159 0
-926 -38 39 0
-926 -44 45 0
-926 -50 51 0
-926 -56 57 0
-926 -62 63 0
-926 -68 69 0
-926 -146 147 0
-926 -152 153 0
-926 -158 159 0
-931 -38 39 0
-931 -44 45 0
-931 -50 51 0
-931 -56 57 0
-931 -62 63 0
-931 -68 69 0
-931 -146 147 0
-931 -152 153 0
-931 -158 159 0
-936 -38 39 0
-936 -44 45 0
-936 -50 51 0
-936 -56 57 0
-936 -62 63 0
-936 -68 69 0
-936 -146 147 0
-936 -152 153 0
-936 -158 159 0
-941 -38 39 0
-941 -44 45 0
-941 -50 51 0
-941 -56 57 0
-941 -62 63 0
-941 -68 69 0
-941 -146 147 0
-941 -152 153 0
-941 -158 159 0
-946 -38 39 0
-946 -44 45 0
-946 -50 51 0
-946 -56 57 0
-946 -62 63 0
-946 -68 69 0
-946 -146 147 0
-946 -152 153 0
-946 -158 159 0
-951 -38 39 0
-951 -44 45 0
-951 -50 51 0
-951 -56 57 0
-951 -62 63 0
-951 -68 69 0
-951 -146 147 0
-951 -152 153 0
-951 -158 159 0
-956 -38 39 0
-956 -44 45 0
-956 -50 51 0
-956 -56 57 0
-956 -62 63 0
-956 -68 69 0
-956 -146 147 0
-956 -152 153 0
-956 -158 159 0
-961 -38 39 0
-961 -44 45 0
-961 -50 51 0
-961 -56 57 0
-961 -62 63 0
-961 -68 69 0
-961 -146 147 0
-961 -152 153 0
-961 -158 159 0
-966 -38 39 0
-966 -44 45 0
-966 -50 51 0
-966 -56 57 0
-966 -62 63 0
-966 -68 69 0
-966 -146 147 0
-966 -152 153 0
-966 -158 159 0
-971 -38 39 0
-971 -44 45 0
-971 -50 51 0
-971 -56 57 0
-971 -62 63 0
-971 -68 69 0
-971 -146 147 0
-971 -152 153 0
-971 -158 159 0
-976 -38 39 0
-976 -44 45 0
-976 -50 51 0
-976 -56 57 0
-976 -62 63 0
-976 -68 69 0
-976 -146 147 0
-976 -152 153 0
-976 -158 159 0
-981 -38 39 0
-981 -44 45 0
-981 -50 51 0
-981 -56 57 0
-981 -62 63 0
-981 -68 69 0
-981 -146 147 0
-981 -152 153 0
-981 -158 159 0
-986 -38 39 0
-986 -44 45 0
-986 -50 51 0
-986 -56 57 0
-986 -62 63 0
-986 -68 69 0
-986 -146 147 0
-986 -152 153 0
-986 -158 159 0
-991 -38 39 0
-991 -44 45 0
-991 -50 51 0
-991 -56 57 0
-991 -62 63 0
-991 -68 69 0
-991 -146 147 0
-991 -152 153 0
-991 -158 159 0
-996 -38 39 0
-996 -44 45 0
-996 -50 51 0
-996 -56 57 0
-996 -62 63 0
-996 -68 69 0
-996 -146 147 0
-996 -152 153 0
-996 -158 159 0
-1001 -38 39 0
-1001 -44 45 0
-1001 -50 51 0
-1001 -56 57 0
-1001 -62 63 0
-1001 -68 69 0
-1001 -146 147 0
-1001 -152 153 0
-1001 -158 159 0
-1006 -38 39 0
-1006 -44 45 0
-1006 -50 51 0
-1006 -56 57 0
-1006 -62 63 0
-1006 -68 69 0
-1006 -146 147 0
-1006 -152 153 0
-1006 -158 159 0
-1011 -38 39 0
-1011 -44 45 0
-1011 -50 51 0
-1011 -56 57 0
-1011 -62 63 0
-1011 -68 69 0
-1011 -146 147 0
-1011 -152 153 0
-1011 -158 159 0
-1016 -38 39 0
-1016 -44 45 0
-1016 -50 51 0
-1016 -56 57 0
-1016 -62 63 0
-1016 -68 69 0
-1016 -146 147 0
-1016 -152 153 0
-1016 -158 159 0
-1021 -38 39 0
-1021 -44 45 0
-1021 -50 51 0
-1021 -56 57 0
-1021 -62 63 0
-1021 -68 69 0
-1021 -146 147 0
-1021 -152 153 0
-1021 -158 159 0
-1026 -38 39 0
-1026 -44 45 0
-1026 -50 51 0
-1026 -56 57 0
-1026 -62 63 0
-1026 -68 69 0
-1026 -146 147 0
-1026 -152 153 0
-1026 -158 159 0
-1031 -38 39 0
-1031 -44 45 0
-1031 -50 51 0
-1031 -56 57 0
-1031 -62 63 0
-1031 -68 69 0
-1031 -146 147 0
-1031 -152 153 0
-1031 -158 159 0
-1036 -38 39 0
-1036 -44 45 0
-1036 -50 51 0
-1036 -56 57 0
-1036 -62 63 0
-1036 -68 69 0
-1036 -146 147 0
-1036 -152 153 0
-1036 -158 159 0
-1041 -38 39 0
-1041 -44 45 0
-1041 -50 51 0
-1041 -56 57 0
-1041 -62 63 0
-1041 -68 69 0
-1041 -146 147 0
-1041 -152 153 0
-1041 -158 159 0
-1046 -38 39 0
-1046 -44 45 0
-1046 -50 51 0
-1046 -56 57 0
-1046 -62 63 0
-1046 -68 69 0
-1046 -146 147 0
-1046 -152 153 0
-1046 -158 159 0
-1051 -38 39 0
-1051 -44 45 0
-1051 -50 51 0
-1051 -56 57 0
-1051 -62 63 0
-1051 -68 69 0
-1051 -146 147 0
-1051 -152 153 0
-1051 -158 159 0
-1056 -38 39 0
-1056 -44 45 0
-1056 -50 51 0
-1056 -56 57 0
-1056 -62 63 0
-1056 -68 69 0
-1056 -146 147 0
-1056 -152 153 0
-1056 -158 159 0
-1061 -38 39 0
-1061 -44 45 0
-1061 -50 51 0
-1061 -56 57 0
-1061 -62 63 0
-1061 -68 69 0
-1061 -146 147 0
-1061 -152 153 0
-1061 -158 159 0
-1066 -38 39 0
-1066 -44 45 0
-1066 -50 51 0
-1066 -56 57 0
-1066 -62 63 0
-1066 -68 69 0
-1066 -146 147 0
-1066 -152 153 0
-1066 -158 159 0
-1071 -38 39 0
-1071 -44 45 0
-1071 -50 51 0
-1071 -56 57 0
-1071 -62 63 0
-1071 -68 69 0
-1071 -146 147 0
-1071 -152 153 0
-1071 -158 159 0
-656 -74 75 0
-656 -80 81 0
-656 -86 87 0
-656 -92 93 0
-656 -98 99 0
-656 -164 165 0
-656 -170 171 0
-656 -176 177 0
-661 -74 75 0
-661 -80 81 0
-661 -86 87 0
-661 -92 93 0
-661 -98 99 0
-661 -164 165 0
-661 -170 171 0
-661 -176 177 0
-666 -74 75 0
-666 -80 81 0
-666 -86 87 0
-666 -92 93 0
-666 -98 99 0
-666 -164 165 0
-666 -170 171 0
-666 -176 177 0
-671 -74 75 0
-671 -80 81 0
-671 -86 87 0
-671 -92 93 0
-671 -98 99 0
-671 -164 165 0
-671 -170 171 0
-671 -176 177 0
-676 -74 75 0
-676 -80 81 0
-676 -86 87 0
-676 -92 93 0
-676 -98 99 0
-676 -164 165 0
-676 -170 171 0
-676 -176 177 0
-681 -74 75 0
-681 -80 81 0
-681 -86 87 0
-681 -92 93 0
-681 -98 99 0
-681 -164 165 0
-681 -170 171 0
-681 -176 177 0
-686 -74 75 0
-686 -80 81 0
-686 -86 87 0
-686 -92 93 0
-686 -98 99 0
-686 -164 165 0
-686 -170 171 0
-686 -176 177 0
-691 -74 75 0
-691 -80 81 0
-691 -86 87 0
-691 -92 93 0
-691 -98 99 0
-691 -164 165 0
-691 -170 171 0
-691 -176 177 0
-696 -74 75 0
-696 -80 81 0
-696 -86 87 0
-696 -92 93 0
-696 -98 99 0
-696 -164 165 0
-696 -170 171 0
-696 -176 177 0
-701 -74 75 0
-701 -80 81 0
-701 -86 87 0
-701 -92 93 0
-701 -98 99 0
-701 -164 165 0
-701 -170 171 0
-701 -176 177 0
-706 -74 75 0
-706 -80 81 0
-706 -86 87 0
-706 -92 93 0
-706 -98 99 0
-706 -164 165 0
-706 -170 171 0
-706 -176 177 0
-711 -74 75 0
-711 -80 81 0
-711 -86 87 0
-711 -92 93 0
-711 -98 99 0
-711 -164 165 0
-711 -170 171 0
-711 -176 177 0
-716 -74 75 0
-716 -80 81 0
-716 -86 87 0
-716 -92 93 0
-716 -98 99 0
-716 -164 165 0
-716 -170 171 0
-716 -176 177 0
-721 -74 75 0
-721 -80 81 0
-721 -86 87 0
-721 -92 93 0
-721 -98 99 0
-721 -164 165 0
-721 -170 171 0
-721 -176 177 0
-726 -74 75 0
-726 -80 81 0
-726 -86 87 0
-726 -92 93 0
-726 -98 99 0
-726 -164 165 0
-726 -170 171 0
-726 -176 177 0
-731 -74 75 0
-731 -80 81 0
-731 -86 87 0
-731 -92 93 0
-731 -98 99 0
-731 -164 165 0
-731 -170 171 0
-731 -176 177 0
-736 -74 75 0
-736 -80 81 0
-736 -86 87 0
-736 -92 93 0
-736 -98 99 0
-736 -164 165 0
-736 -170 171 0
-736 -176 177 0
-741 -74 75 0
-741 -80 81 0
-741 -86 87 0
-741 -92 93 0
-741 -98 99 0
-741 -164 165 0
-741 -170 171 0
-741 -176 177 0
-746 -74 75 0
-746 -80 81 0
-746 -86 87 0
-746 -92 93 0
-746 -98 99 0
-746 -164 165 0
-746 -170 171 0
-746 -176 177 0
-751 -74 75 0
-751 -80 81 0
-751 -86 87 0
-751 -92 93 0
-751 -98 99 0
-751 -164 165 0
-751 -170 171 0
-751 -176 177 0
-756 -74 75 0
-756 -80 81 0
-756 -86 87 0
-756 -92 93 0
-756 -98 99 0
-756 -164 165 0
-756 -170 171 0
-756 -176 177 0
-761 -74 75 0
-761 -80 81 0
-761 -86 87 0
-761 -92 93 0
-761 -98 99 0
-761 -164 165 0
-761 -170 171 0
-761 -176 177 0
-766 -74 75 0
-766 -80 81 0
-766 -86 87 0
-766 -92 93 0
-766 -98 99 0
-766 -164 165 0
-766 -170 171 0
-766 -176 177 0
-771 -74 75 0
-771 -80 81 0
-771 -86 87 0
-771 -92 93 0
-771 -98 99 0
-771 -164 165 0
-771 -170 171 0
-771 -176 177 0
-776 -74 75 0
-776 -80 81 0
-776 -86 87 0
-776 -92 93 0
-776 -98 99 0
-776 -164 165 0
-776 -170 171 0
-776 -176 177 0
-781 -74 75 0
-781 -80 81 0
-781 -86 87 0
-781 -92 93 0
-781 -98 99 0
-781 -164 165 0
-781 -170 171 0
-781 -176 177 0
-786 -74 75 0
-786 -80 81 0
-786 -86 87 0
-786 -92 93 0
-786 -98 99 0
-786 -164 165 0
-786 -170 171 0
-786 -176 177 0
-791 -74 75 0
-791 -80 81 0
-791 -86 87 0
-791 -92 93 0
-791 -98 99 0
-791 -164 165 0
-791 -170 171 0
-791 -176 177 0
-796 -74 75 0
-796 -80 81 0
-796 -86 87 0
-796 -92 93 0
-796 -98 99 0
-796 -164 165 0
-796 -170 171 0
-796 -176 177 0
-801 -74 75 0
-801 -80 81 0
-801 -86 87 0
-801 -92 93 0
-801 -98 99 0
-801 -164 165 0
-801 -170 171 0
-801 -176 177 0
-806 -74 75 0
-806 -80 81 0
-806 -86 87 0
-806 -92 93 0
-806 -98 99 0
-806 -164 165 0
-806 -170 171 0
-806 -176 177 0
-811 -74 75 0
-811 -80 81 0
-811 -86 87 0
-811 -92 93 0
-811 -98 99 0
-811 -164 165 0
-811 -170 171 0
-811 -176 177 0
-816 -74 75 0
-816 -80 81 0
-816 -86 87 0
-816 -92 93 0
-816 -98 99 0
-816 -164 165 0
-816 -170 171 0
-816 -176 177 0
-821 -74 75 0
-821 -80 81 0
-821 -86 87 0
-821 -92 93 0
-821 -98 99 0
-821 -164 165 0
-821 -170 171 0
-821 -176 177 0
-826 -74 75 0
-826 -80 81 0
-826 -86 87 0
-826 -92 93 0
-826 -98 99 0
-826 -164 165 0
-826 -170 171 0
-826 -176 177 0
-831 -74 75 0
-831 -80 81 0
-831 -86 87 0
-831 -92 93 0
-831 -98 99 0
-831 -164 165 0
-831 -170 171 0
-831 -176 177 0
-836 -74 75 0
-836 -80 81 0
-836 -86 87 0
-836 -92 93 0
-836 -98 99 0
-836 -164 165 0
-836 -170 171 0
-836 -176 177 0
-841 -74 75 0
-841 -80 81 0
-841 -86 87 0
-841 -92 93 0
-841 -98 99 0
-841 -164 165 0
-841 -170 171 0
-841 -176 177 0
-846 -74 75 0
-846 -80 81 0
-846 -86 87 0
-846 -92 93 0
-846 -98 99 0
-846 -164 165 0
-846 -170 171 0
-846 -176 177 0
-851 -74 75 0
-851 -80 81 0
-851 -86 87 0
-851 -92 93 0
-851 -98 99 0
-851 -164 165 0
-851 -170 171 0
-851 -176 177 0
-856 -74 75 0
-856 -80 81 0
-856 -86 87 0
-856 -92 93 0
-856 -98 99 0
-856 -164 165 0
-856 -170 171 0
-856 -176 177 0
-861 -74 75 0
-861 -80 81 0
-861 -86 87 0
-861 -92 93 0
-861 -98 99 0
-861 -164 165 0
-861 -170 171 0
-861 -176 177 0
-866 -74 75 0
-866 -80 81 0
-866 -86 87 0
-866 -92 93 0
-866 -98 99 0
-866 -164 165 0
-866 -170 171 0
-866 -176 177 0
-871 -74 75 0
-871 -80 81 0
-871 -86 87 0
-871 -92 93 0
-871 -98 99 0
-871 -164 165 0
-871 -170 171 0
-871 -176 177 0
-876 -74 75 0
-876 -80 81 0
-876 -86 87 0
-876 -92 93 0
-876 -98 99 0
-876 -164 165 0
-876 -170 171 0
-876 -176 177 0
-881 -74 75 0
-881 -80 81 0
-881 -86 87 0
-881 -92 93 0
-881 -98 99 0
-881 -164 165 0
-881 -170 171 0
-881 -176 177 0
-886 -74 75 0
-886 -80 81 0
-886 -86 87 0
-886 -92 93 0
-886 -98 99 0
-886 -164 165 0
-886 -170 171 0
-886 -176 177 0
-891 -74 75 0
-891 -80 81 0
-891 -86 87 0
-891 -92 93 0
-891 -98 99 0
-891 -164 165 0
-891 -170 171 0
-891 -176 177 0
-996 -74 75 0
-996 -80 81 0
-996 -86 87 0
-996 -92 93 0
-996 -98 99 0
-996 -164 165 0
-996 -170 171 0
-996 -176 177 0
-1001 -74 75 0
-1001 -80 81 0
-1001 -86 87 0
-1001 -92 93 0
-1001 -98 99 0
-1001 -164 165 0
-1001 -170 171 0
-1001 -176 177 0
-1006 -74 75 0
-1006 -80 81 0
-1006 -86 87 0
-1006 -92 93 0
-1006 -98 99 0
-1006 -164 165 0
-1006 -170 171 0
-1006 -176 177 0
-1011 -74 75 0
-1011 -80 81 0
-1011 -86 87 0
-1011 -92 93 0
-1011 -98 99 0
-1011 -164 165 0
-1011 -170 171 0
-1011 -176 177 0
-1016 -74 75 0
-1016 -80 81 0
-1016 -86 87 0
-1016 -92 93 0
-1016 -98 99 0
-1016 -164 165 0
-1016 -170 171 0
-1016 -176 177 0
-1021 -74 75 0
-1021 -80 81 0
-1021 -86 87 0
-1021 -92 93 0
-1021 -98 99 0
-1021 -164 165 0
-1021 -170 171 0
-1021 -176 177 0
-1026 -74 75 0
-1026 -80 81 0
-1026 -86 87 0
-1026 -92 93 0
-1026 -98 99 0
-1026 -164 165 0
-1026 -170 171 0
-1026 -176 177 0
-1031 -74 75 0
-1031 -80 81 0
-1031 -86 87 0
-1031 -92 93 0
-1031 -98 99 0
-1031 -164 165 0
-1031 -170 171 0
-1031 -176 177 0
-1036 -74 75 0
-1036 -80 81 0
-1036 -86 87 0
-1036 -92 93 0
-1036 -98 99 0
-1036 -164 165 0
-1036 -170 171 0
-1036 -176 177 0
-1041 -74 75 0
-1041 -80 81 0
-1041 -86 87 0
-1041 -92 93 0
-1041 -98 99 0
-1041 -164 165 0
-1041 -170 171 0
-1041 -176 177 0
-1046 -74 75 0
-1046 -80 81 0
-1046 -86 87 0
-1046 -92 93 0
-1046 -98 99 0
-1046 -164 165 0
-1046 -170 171 0
-1046 -176 177 0
-1051 -74 75 0
-1051 -80 81 0
-1051 -86 87 0
-1051 -92 93 0
-1051 -98 99 0
-1051 -164 165 0
-1051 -170 171 0
-1051 -176 177 0
-1056 -74 75 0
-1056 -80 81 0
-1056 -86 87 0
-1056 -92 93 0
-1056 -98 99 0
-1056 -164 165 0
-1056 -170 171 0
-1056 -176 177 0
-1061 -74 75 0
-1061 -80 81 0
-1061 -86 87 0
-1061 -92 93 0
-1061 -98 99 0
-1061 -164 165 0
-1061 -170 171 0
-1061 -176 177 0
-1066 -74 75 0
-1066 -80 81 0
-1066 -86 87 0
-1066 -92 93 0
-1066 -98 99 0
-1066 -164 165 0
-1066 -170 171 0
-1066 -176 177 0
-1071 -74 75 0
-1071 -80 81 0
-1071 -86 87 0
-1071 -92 93 0
-1071 -98 99 0
-1071 -164 165 0
-1071 -170 171 0
-1071 -176 177 0
-656 -104 105 0
-656 -110 111 0
-656 -116 117 0
-656 -122 123 0
-656 -182 183 0
-656 -188 189 0
-656 -194 195 0
-661 -104 105 0
-661 -110 111 0
-661 -116 117 0
-661 -122 123 0
-661 -182 183 0
-661 -188 189 0
-661 -194 195 0
-666 -104 105 0
-666 -110 111 0
-666 -116 117 0
-666 -122 123 0
-666 -182 183 0
-666 -188 189 0
-666 -194 195 0
-671 -104 105 0
-671 -110 111 0
-671 -116 117 0
-671 -122 123 0
-671 -182 183 0
-671 -188 189 0
-671 -194 195 0
-676 -104 105 0
-676 -110 111 0
-676 -116 117 0
-676 -122 123 0
-676 -182 183 0
-676 -188 189 0
-676 -194 195 0
-681 -104 105 0
-681 -110 111 0
-681 -116 117 0
-681 -122 123 0
-681 -182 183 0
-681 -188 189 0
-681 -194 195 0
-686 -104 105 0
-686 -110 111 0
-686 -116 117 0
-686 -122 123 0
-686 -182 183 0
-686 -188 189 0
-686 -194 195 0
-691 -104 105 0
-691 -110 111 0
-691 -116 117 0
-691 -122 123 0
-691 -182 183 0
-691 -188 189 0
-691 -194 195 0
-696 -104 105 0
-696 -110 111 0
-696 -116 117 0
-696 -122 123 0
-696 -182 183 0
-696 -188 189 0
-696 -194 195 0
-701 -104 105 0
-701 -110 111 0
-701 -116 117 0
-701 -122 123 0
-701 -182 183 0
-701 -188 189 0
-701 -194 195 0
-706 -104 105 0
-706 -110 111 0
-706 -116 117 0
-706 -122 123 0
-706 -182 183 0
-706 -188 189 0
-706 -194 195 0
-711 -104 105 0
-711 -110 111 0
-711 -116 117 0
-711 -122 123 0
-711 -182 183 0
-711 -188 189 0
-711 -194 195 0
-716 -104 105 0
-716 -110 111 0
-716 -116 117 0
-716 -122 123 0
-716 -182 183 0
-716 -188 189 0
-716 -194 195 0
-721 -104 105 0
-721 -110 111 0
-721 -116 117 0
-721 -122 123 0
-721 -182 183 0
-721 -188 189 0
-721 -194 195 0
-726 -104 105 0
-726 -110 111 0
-726 -116 117 0
-726 -122 123 0
-726 -182 183 0
-726 -188 189 0
-726 -194 195 0
-731 -104 105 0
-731 -110 111 0
-731 -116 117 0
-731 -122 123 0
-731 -182 183 0
-731 -188 189 0
-731 -194 195 0
-736 -104 105 0
-736 -110 111 0
-736 -116 117 0
-736 -122 123 0
-736 -182 183 0
-736 -188 189 0
-736 -194 195 0
-741 -104 105 0
-741 -110 111 0
-741 -116 117 0
-741 -122 123 0
-741 -182 183 0
-741 -188 189 0
-741 -194 195 0
-746 -104 105 0
-746 -110 111 0
-746 -116 117 0
-746 -122 123 0
-746 -182 183 0
-746 -188 189 0
-746 -194 195 0
-751 -104 105 0
-751 -110 111 0
-751 -116 117 0
-751 -122 123 0
-751 -182 183 0
-751 -188 189 0
-751 -194 195 0
-756 -104 105 0
-756 -110 111 0
-756 -116 117 0
-756 -122 123 0
-756 -182 183 0
-756 -188 189 0
-756 -194 195 0
-761 -104 105 0
-761 -110 111 0
-761 -116 117 0
-761 -122 123 0
-761 -182 183 0
-761 -188 189 0
-761 -194 195 0
-766 -104 105 0
-766 -110 111 0
-766 -116 117 0
-766 -122 123 0
-766 -182 183 0
-766 -188 189 0
-766 -194 195 0
-771 -104 105 0
-771 -110 111 0
-771 -116 117 0
-771 -122 123 0
-771 -182 183 0
-771 -188 189 0
-771 -194 195 0
-776 -104 105 0
-776 -110 111 0
-776 -116 117 0
-776 -122 123 0
-776 -182 183 0
-776 -188 189 0
-776 -194 195 0
-781 -104 105 0
-781 -110 111 0
-781 -116 117 0
-781 -122 123 0
-781 -182 183 0
-781 -188 189 0
-781 -194 195 0
-786 -104 105 0
-786 -110 111 0
-786 -116 117 0
-786 -122 123 0
-786 -182 183 0
-786 -188 189 0
-786 -194 195 0
-791 -104 105 0
-791 -110 111 0
-791 -116 117 0
-791 -122 123 0
-791 -182 183 0
-791 -188 189 0
-791 -194 195 0
-796 -104 105 0
-796 -110 111 0
-796 -116 117 0
-796 -122 123 0
-796 -182 183 0
-796 -188 189 0
-796 -194 195 0
-801 -104 105 0
-801 -110 111 0
-801 -116 117 0
-801 -122 123 0
-801 -182 183 0
-801 -188 189 0
-801 -194 195 0
-806 -104 105 0
-806 -110 111 0
-806 -116 117 0
-806 -122 123 0
-806 -182 183 0
-806 -188 189 0
-806 -194 195 0
-811 -104 105 0
-811 -110 111 0
-811 -116 117 0
-811 -122 123 0
-811 -182 183 0
-811 -188 189 0
-811 -194 195 0
-816 -104 105 0
-816 -110 111 0
-816 -116 117 0
-816 -122 123 0
-816 -182 183 0
-816 -188 189 0
-816 -194 195 0
-821 -104 105 0
-821 -110 111 0
-821 -116 117 0
-821 -122 123 0
-821 -182 183 0
-821 -188 189 0
-821 -194 195 0
-826 -104 105 0
-826 -110 111 0
-826 -116 117 0
-826 -122 123 0
-826 -182 183 0
-826 -188 189 0
-826 -194 195 0
-831 -104 105 0
-831 -110 111 0
-831 -116 117 0
-831 -122 123 0
-831 -182 183 0
-831 -188 189 0
-831 -194 195 0
-836 -104 105 0
-836 -110 111 0
-836 -116 117 0
-836 -122 123 0
-836 -182 183 0
-836 -188 189 0
-836 -194 195 0
-841 -104 105 0
-841 -110 111 0
-841 -116 117 0
-841 -122 123 0
-841 -182 183 0
-841 -188 189 0
-841 -194 195 0
-846 -104 105 0
-846 -110 111 0
-846 -116 117 0
-846 -122 123 0
-846 -182 183 0
-846 -188 189 0
-846 -194 195 0
-851 -104 105 0
-851 -110 111 0
-851 -116 117 0
-851 -122 123 0
-851 -182 183 0
-851 -188 189 0
-851 -194 195 0
-856 -104 105 0
-856 -110 111 0
-856 -116 117 0
-856 -122 123 0
-856 -182 183 0
-856 -188 189 0
-856 -194 195 0
-861 -104 105 0
-861 -110 111 0
-861 -116 117 0
-861 -122 123 0
-861 -182 183 0
-861 -188 189 0
-861 -194 195 0
-866 -104 105 0
-866 -110 111 0
-866 -116 117 0
-866 -122 123 0
-866 -182 183 0
-866 -188 189 0
-866 -194 195 0
-871 -104 105 0
-871 -110 111 0
-871 -116 117 0
-871 -122 123 0
-871 -182 183 0
-871 -188 189 0
-871 -194 195 0
-876 -104 105 0
-876 -110 111 0
-876 -116 117 0
-876 -122 123 0
-876 -182 183 0
-876 -188 189 0
-876 -194 195 0
-881 -104 105 0
-881 -110 111 0
-881 -116 117 0
-881 -122 123 0
-881 -182 183 0
-881 -188 189 0
-881 -194 195 0
-886 -104 105 0
-886 -110 111 0
-886 -116 117 0
-886 -122 123 0
-886 -182 183 0
-886 -188 189 0
-886 -194 195 0
-891 -104 105 0
-891 -110 111 0
-891 -116 117 0
-891 -122 123 0
-891 -182 183 0
-891 -188 189 0
-891 -194 195 0
-896 -104 105 0
-896 -110 111 0
-896 -116 117 0
-896 -122 123 0
-896 -182 183 0
-896 -188 189 0
-896 -194 195 0
-901 -104 105 0
-901 -110 111 0
-901 -116 117 0
-901 -122 123 0
-901 -182 183 0
-901 -188 189 0
-901 -194 195 0
-906 -104 105 0
-906 -110 111 0
-906 -116 117 0
-906 -122 123 0
-906 -182 183 0
-906 -188 189 0
-906 -194 195 0
-911 -104 105 0
-911 -110 111 0
-911 -116 117 0
-911 -122 123 0
-911 -182 183 0
-911 -188 189 0
-911 -194 195 0
-916 -104 105 0
-916 -110 111 0
-916 -116 117 0
-916 -122 123 0
-916 -182 183 0
-916 -188 189 0
-916 -194 195 0
-921 -104 105 0
-921 -110 111 0
-921 -116 117 0
-921 -122 123 0
-921 -182 183 0
-921 -188 189 0
-921 -194 195 0
-926 -104 105 0
-926 -110 111 0
-926 -116 117 0
-926 -122 123 0
-926 -182 183 0
-926 -188 189 0
-926 -194 195 0
-931 -104 105 0
-931 -110 111 0
-931 -116 117 0
-931 -122 123 0
-931 -182 183 0
-931 -188 189 0
-931 -194 195 0
-936 -104 105 0
-936 -110 111 0
-936 -116 117 0
-936 -122 123 0
-936 -182 183 0
-936 -188 189 0
-936 -194 195 0
-941 -104 105 0
-941 -110 111 0
-941 -116 117 0
-941 -122 123 0
-941 -182 183 0
-941 -188 189 0
-941 -194 195 0
-946 -104 105 0
-946 -110 111 0
-946 -116 117 0
-946 -122 123 0
-946 -182 183 0
-946 -188 189 0
-946 -194 195 0
-951 -104 105 0
-951 -110 111 0
-951 -116 117 0
-951 -122 123 0
-951 -182 183 0
-951 -188 189 0
-951 -194 195 0
-956 -104 105 0
-956 -110 111 0
-956 -116 117 0
-956 -122 123 0
-956 -182 183 0
-956 -188 189 0
-956 -194 195 0
-961 -104 105 0
-961 -110 111 0
-961 -116 117 0
-961 -122 123 0
-961 -182 183 0
-961 -188 189 0
-961 -194 195 0
-966 -104 105 0
-966 -110 111 0
-966 -116 117 0
-966 -122 123 0
-966 -182 183 0
-966 -188 189 0
-966 -194 195 0
-971 -104 105 0
-971 -110 111 0
-971 -116 117 0
-971 -122 123 0
-971 -182 183 0
-971 -188 189 0
-971 -194 195 0
-976 -104 105 0
-976 -110 111 0
-976 -116 117 0
-976 -122 123 0
-976 -182 183 0
-976 -188 189 0
-976 -194 195 0
-981 -104 105 0
-981 -110 111 0
-981 -116 117 0
-981 -122 123 0
-981 -182 183 0
-981 -188 189 0
-981 -194 195 0
-986 -104 105 0
-986 -110 111 0
-986 -116 117 0
-986 -122 123 0
-986 -182 183 0
-986 -188 189 0
-986 -194 195 0
-991 -104 105 0
-991 -110 111 0
-991 -116 117 0
-991 -122 123 0
-991 -182 183 0
-991 -188 189 0
-991 -194 195 0
-777 -3 4 0
-777 -9 10 0
-777 -15 16 0
-777 -21 22 0
-777 -27 28 0
-777 -33 34 0
-777 -129 130 0
-777 -135 136 0
-777 -141 142 0
-782 -3 4 0
-782 -9 10 0
-782 -15 16 0
-782 -21 22 0
-782 -27 28 0
-782 -33 34 0
-782 -129 130 0
-782 -135 136 0
-782 -141 142 0
-787 -3 4 0
-787 -9 10 0
-787 -15 16 0
-787 -21 22 0
-787 -27 28 0
-787 -33 34 0
-787 -129 130 0
-787 -135 136 0
-787 -141 142 0
-792 -3 4 0
-792 -9 10 0
-792 -15 16 0
-792 -21 22 0
-792 -27 28 0
-792 -33 34 0
-792 -129 130 0
-792 -135 136 0
-792 -141 142 0
-797 -3 4 0
-797 -9 10 0
-797 -15 16 0
-797 -21 22 0
-797 -27 28 0
-797 -33 34 0
-797 -129 130 0
-797 -135 136 0
-797 -141 142 0
-802 -3 4 0
-802 -9 10 0
-802 -15 16 0
-802 -21 22 0
-802 -27 28 0
-802 -33 34 0
-802 -129 130 0
-802 -135 136 0
-802 -141 142 0
-807 -3 4 0
-807 -9 10 0
-807 -15 16 0
-807 -21 22 0
-807 -27 28 0
-807 -33 34 0
-807 -129 130 0
-807 -135 136 0
-807 -141 142 0
-812 -3 4 0
-812 -9 10 0
-812 -15 16 0
-812 -21 22 0
-812 -27 28 0
-812 -33 34 0
-812 -129 130 0
-812 -135 136 0
-812 -141 142 0
-817 -3 4 0
-817 -9 10 0
-817 -15 16 0
-817 -21 22 0
-817 -27 28 0
-817 -33 34 0
-817 -129 130 0
-817 -135 136 0
-817 -141 142 0
-822 -3 4 0
-822 -9 10 0
-822 -15 16 0
-822 -21 22 0
-822 -27 28 0
-822 -33 34 0
-822 -129 130 0
-822 -135 136 0
-822 -141 142 0
-827 -3 4 0
-827 -9 10 0
-827 -15 16 0
-827 -21 22 0
-827 -27 28 0
-827 -33 34 0
-827 -129 130 0
-827 -135 136 0
-827 -141 142 0
-832 -3 4 0
-832 -9 10 0
-832 -15 16 0
-832 -21 22 0
-832 -27 28 0
-832 -33 34 0
-832 -129 130 0
-832 -135 136 0
-832 -141 142 0
-837 -3 4 0
-837 -9 10 0
-837 -15 16 0
-837 -21 22 0
-837 -27 28 0
-837 -33 34 0
-837 -129 130 0
-837 -135 136 0
-837 -141 142 0
-842 -3 4 0
-842 -9 10 0
-842 -15 16 0
-842 -21 22 0
-842 -27 28 0
-842 -33 34 0
-842 -129 130 0
-842 -135 136 0
-842 -141 142 0
-847 -3 4 0
-847 -9 10 0
-847 -15 16 0
-847 -21 22 0
-847 -27 28 0
-847 -33 34 0
-847 -129 130 0
-847 -135 136 0
-847 -141 142 0
-852 -3 4 0
-852 -9 10 0
-852 -15 16 0
-852 -21 22 0
-852 -27 28 0
-852 -33 34 0
-852 -129 130 0
-852 -135 136 0
-852 -141 142 0
-857 -3 4 0
-857 -9 10 0
-857 -15 16 0
-857 -21 22 0
-857 -27 28 0
-857 -33 34 0
-857 -129 130 0
-857 -135 136 0
-857 -141 142 0
-862 -3 4 0
-862 -9 10 0
-862 -15 16 0
-862 -21 22 0
-862 -27 28 0
-862 -33 34 0
-862 -129 130 0
-862 -135 136 0
-862 -141 142 0
-867 -3 4 0
-867 -9 10 0
-867 -15 16 0
-867 -21 22 0
-867 -27 28 0
-867 -33 34 0
-867 -129 130 0
-867 -135 136 0
-867 -141 142 0
-872 -3 4 0
-872 -9 10 0
-872 -15 16 0
-872 -21 22 0
-872 -27 28 0
-872 -33 34 0
-872 -129 130 0
-872 -135 136 0
-872 -141 142 0
-877 -3 4 0
-877 -9 10 0
-877 -15 16 0
-877 -21 22 0
-877 -27 28 0
-877 -33 34 0
-877 -129 130 0
-877 -135 136 0
-877 -141 142 0
-882 -3 4 0
-882 -9 10 0
-882 -15 16 0
-882 -21 22 0
-882 -27 28 0
-882 -33 34 0
-882 -129 130 0
-882 -135 136 0
-882 -141 142 0
-887 -3 4 0
-887 -9 10 0
-887 -15 16 0
-887 -21 22 0
-887 -27 28 0
-887 -33 34 0
-887 -129 130 0
-887 -135 136 0
-887 -141 142 0
-892 -3 4 0
-892 -9 10 0
-892 -15 16 0
-892 -21 22 0
-892 -27 28 0
-892 -33 34 0
-892 -129 130 0
-892 -135 136 0
-892 -141 142 0
-897 -3 4 0
-897 -9 10 0
-897 -15 16 0
-897 -21 22 0
-897 -27 28 0
-897 -33 34 0
-897 -129 130 0
-897 -135 136 0
-897 -141 142 0
-902 -3 4 0
-902 -9 10 0
-902 -15 16 0
-902 -21 22 0
-902 -27 28 0
-902 -33 34 0
-902 -129 130 0
-902 -135 136 0
-902 -141 142 0
-907 -3 4 0
-907 -9 10 0
-907 -15 16 0
-907 -21 22 0
-907 -27 28 0
-907 -33 34 0
-907 -129 130 0
-907 -135 136 0
-907 -141 142 0
-912 -3 4 0
-912 -9 10 0
-912 -15 16 0
-912 -21 22 0
-912 -27 28 0
-912 -33 34 0
-912 -129 130 0
-912 -135 136 0
-912 -141 142 0
-917 -3 4 0
-917 -9 10 0
-917 -15 16 0
-917 -21 22 0
-917 -27 28 0
-917 -33 34 0
-917 -129 130 0
-917 -135 136 0
-917 -141 142 0
-922 -3 4 0
-922 -9 10 0
-922 -15 16 0
-922 -21 22 0
-922 -27 28 0
-922 -33 34 0
-922 -129 130 0
-922 -135 136 0
-922 -141 142 0
-927 -3 4 0
-927 -9 10 0
-927 -15 16 0
-927 -21 22 0
-927 -27 28 0
-927 -33 34 0
-927 -129 130 0
-927 -135 136 0
-927 -141 142 0
-932 -3 4 0
-932 -9 10 0
-932 -15 16 0
-932 -21 22 0
-932 -27 28 0
-932 -33 34 0
-932 -129 130 0
-932 -135 136 0
-932 -141 142 0
-937 -3 4 0
-937 -9 10 0
-937 -15 16 0
-937 -21 22 0
-937 -27 28 0
-937 -33 34 0
-937 -129 130 0
-937 -135 136 0
-937 -141 142 0
-942 -3 4 0
-942 -9 10 0
-942 -15 16 0
-942 -21 22 0
-942 -27 28 0
-942 -33 34 0
-942 -129 130 0
-942 -135 136 0
-942 -141 142 0
-947 -3 4 0
-947 -9 10 0
-947 -15 16 0
-947 -21 22 0
-947 -27 28 0
-947 -33 34 0
-947 -129 130 0
-947 -135 136 0
-947 -141 142 0
-952 -3 4 0
-952 -9 10 0
-952 -15 16 0
-952 -21 22 0
-952 -27 28 0
-952 -33 34 0
-952 -129 130 0
-952 -135 136 0
-952 -141 142 0
-957 -3 4 0
-957 -9 10 0
-957 -15 16 0
-957 -21 22 0
-957 -27 28 0
-957 -33 34 0
-957 -129 130 0
-957 -135 136 0
-957 -141 142 0
-962 -3 4 0
-962 -9 10 0
-962 -15 16 0
-962 -21 22 0
-962 -27 28 0
-962 -33 34 0
-962 -129 130 0
-962 -135 136 0
-962 -141 142 0
-967 -3 4 0
-967 -9 10 0
-967 -15 16 0
-967 -21 22 0
-967 -27 28 0
-967 -33 34 0
-967 -129 130 0
-967 -135 136 0
-967 -141 142 0
-972 -3 4 0
-972 -9 10 0
-972 -15 16 0
-972 -21 22 0
-972 -27 28 0
-972 -33 34 0
-972 -129 130 0
-972 -135 136 0
-972 -141 142 0
-977 -3 4 0
-977 -9 10 0
-977 -15 16 0
-977 -21 22 0
-977 -27 28 0
-977 -33 34 0
-977 -129 130 0
-977 -135 136 0
-977 -141 142 0
-982 -3 4 0
-982 -9 10 0
-982 -15 16 0
-982 -21 22 0
-982 -27 28 0
-982 -33 34 0
-982 -129 130 0
-982 -135 136 0
-982 -141 142 0
-987 -3 4 0
-987 -9 10 0
-987 -15 16 0
-987 -21 22 0
-987 -27 28 0
-987 -33 34 0
-987 -129 130 0
-987 -135 136 0
-987 -141 142 0
-992 -3 4 0
-992 -9 10 0
-992 -15 16 0
-992 -21 22 0
-992 -27 28 0
-992 -33 34 0
-992 -129 130 0
-992 -135 136 0
-992 -141 142 0
-997 -3 4 0
-997 -9 10 0
-997 -15 16 0
-997 -21 22 0
-997 -27 28 0
-997 -33 34 0
-997 -129 130 0
-997 -135 136 0
-997 -141 142 0
-1002 -3 4 0
-1002 -9 10 0
-1002 -15 16 0
-1002 -21 22 0
-1002 -27 28 0
-1002 -33 34 0
-1002 -129 130 0
-1002 -135 136 0
-1002 -141 142 0
-1007 -3 4 0
-1007 -9 10 0
-1007 -15 16 0
-1007 -21 22 0
-1007 -27 28 0
-1007 -33 34 0
-1007 -129 130 0
-1007 -135 136 0
-1007 -141 142 0
-1012 -3 4 0
-1012 -9 10 0
-1012 -15 16 0
-1012 -21 22 0
-1012 -27 28 0
-1012 -33 34 0
-1012 -129 130 0
-1012 -135 136 0
-1012 -141 142 0
-1017 -3 4 0
-1017 -9 10 0
-1017 -15 16 0
-1017 -21 22 0
-1017 -27 28 0
-1017 -33 34 0
-1017 -129 130 0
-1017 -135 136 0
-1017 -141 142 0
-1022 -3 4 0
-1022 -9 10 0
-1022 -15 16 0
-1022 -21 22 0
-1022 -27 28 0
-1022 -33 34 0
-1022 -129 130 0
-1022 -135 136 0
-1022 -141 142 0
-1027 -3 4 0
-1027 -9 10 0
-1027 -15 16 0
-1027 -21 22 0
-1027 -27 28 0
-1027 -33 34 0
-1027 -129 130 0
-1027 -135 136 0
-1027 -141 142 0
-1032 -3 4 0
-1032 -9 10 0
-1032 -15 16 0
-1032 -21 22 0
-1032 -27 28 0
-1032 -33 34 0
-1032 -129 130 0
-1032 -135 136 0
-1032 -141 142 0
-1037 -3 4 0
-1037 -9 10 0
-1037 -15 16 0
-1037 -21 22 0
-1037 -27 28 0
-1037 -33 34 0
-1037 -129 130 0
-1037 -135 136 0
-1037 -141 142 0
-1042 -3 4 0
-1042 -9 10 0
-1042 -15 16 0
-1042 -21 22 0
-1042 -27 28 0
-1042 -33 34 0
-1042 -129 130 0
-1042 -135 136 0
-1042 -141 142 0
-1047 -3 4 0
-1047 -9 10 0
-1047 -15 16 0
-1047 -21 22 0
-1047 -27 28 0
-1047 -33 34 0
-1047 -129 130 0
-1047 -135 136 0
-1047 -141 142 0
-1052 -3 4 0
-1052 -9 10 0
-1052 -15 16 0
-1052 -21 22 0
-1052 -27 28 0
-1052 -33 34 0
-1052 -129 130 0
-1052 -135 136 0
-1052 -141 142 0
-1057 -3 4 0
-1057 -9 10 0
-1057 -15 16 0
-1057 -21 22 0
-1057 -27 28 0
-1057 -33 34 0
-1057 -129 130 0
-1057 -135 136 0
-1057 -141 142 0
-1062 -3 4 0
-1062 -9 10 0
-1062 -15 16 0
-1062 -21 22 0
-1062 -27 28 0
-1062 -33 34 0
-1062 -129 130 0
-1062 -135 136 0
-1062 -141 142 0
-1067 -3 4 0
-1067 -9 10 0
-1067 -15 16 0
-1067 -21 22 0
-1067 -27 28 0
-1067 -33 34 0
-1067 -129 130 0
-1067 -135 136 0
-1067 -141 142 0
-1072 -3 4 0
-1072 -9 10 0
-1072 -15 16 0
-1072 -21 22 0
-1072 -27 28 0
-1072 -33 34 0
-1072 -129 130 0
-1072 -135 136 0
-1072 -141 142 0
-657 -39 40 0
-657 -45 46 0
-657 -51 52 0
-657 -57 58 0
-657 -63 64 0
-657 -69 70 0
-657 -147 148 0
-657 -153 154 0
-657 -159 160 0
-662 -39 40 0
-662 -45 46 0
-662 -51 52 0
-662 -57 58 0
-662 -63 64 0
-662 -69 70 0
-662 -147 148 0
-662 -153 154 0
-662 -159 160 0
-667 -39 40 0
-667 -45 46 0
-667 -51 52 0
-667 -57 58 0
-667 -63 64 0
-667 -69 70 0
-667 -147 148 0
-667 -153 154 0
-667 -159 160 0
-672 -39 40 0
-672 -45 46 0
-672 -51 52 0
-672 -57 58 0
-672 -63 64 0
-672 -69 70 0
-672 -147 148 0
-672 -153 154 0
-672 -159 160 0
-677 -39 40 0
-677 -45 46 0
-677 -51 52 0
-677 -57 58 0
-677 -63 64 0
-677 -69 70 0
-677 -147 148 0
-677 -153 154 0
-677 -159 160 0
-682 -39 40 0
-682 -45 46 0
-682 -51 52 0
-682 -57 58 0
-682 -63 64 0
-682 -69 70 0
-682 -147 148 0
-682 -153 154 0
-682 -159 160 0
-687 -39 40 0
-687 -45 46 0
-687 -51 52 0
-687 -57 58 0
-687 -63 64 0
-687 -69 70 0
-687 -147 148 0
-687 -153 154 0
-687 -159 160 0
-692 -39 40 0
-692 -45 46 0
-692 -51 52 0
-692 -57 58 0
-692 -63 64 0
-692 -69 70 0
-692 -147 148 0
-692 -153 154 0
-692 -159 160 0
-697 -39 40 0
-697 -45 46 0
-697 -51 52 0
-697 -57 58 0
-697 -63 64 0
-697 -69 70 0
-697 -147 148 0
-697 -153 154 0
-697 -159 160 0
-702 -39 40 0
-702 -45 46 0
-702 -51 52 0
-702 -57 58 0
-702 -63 64 0
-702 -69 70 0
-702 -147 148 0
-702 -153 154 0
-702 -159 160 0
-707 -39 40 0
-707 -45 46 0
-707 -51 52 0
-707 -57 58 0
-707 -63 64 0
-707 -69 70 0
-707 -147 148 0
-707 -153 154 0
-707 -159 160 0
-712 -39 40 0
-712 -45 46 0
-712 -51 52 0
-712 -57 58 0
-712 -63 64 0
-712 -69 70 0
-712 -147 148 0
-712 -153 154 0
-712 -159 160 0
-717 -39 40 0
-717 -45 46 0
-717 -51 52 0
-717 -57 58 0
-717 -63 64 0
-717 -69 70 0
-717 -147 148 0
-717 -153 154 0
-717 -159 160 0
-722 -39 40 0
-722 -45 46 0
-722 -51 52 0
-722 -57 58 0
-722 -63 64 0
-722 -69 70 0
-722 -147 148 0
-722 -153 154 0
-722 -159 160 0
-727 -39 40 0
-727 -45 46 0
-727 -51 52 0
-727 -57 58 0
-727 -63 64 0
-727 -69 70 0
-727 -147 148 0
-727 -153 154 0
-727 -159 160 0
-732 -39 40 0
-732 -45 46 0
-732 -51 52 0
-732 -57 58 0
-732 -63 64 0
-732 -69 70 0
-732 -147 148 0
-732 -153 154 0
-732 -159 160 0
-737 -39 40 0
-737 -45 46 0
-737 -51 52 0
-737 -57 58 0
-737 -63 64 0
-737 -69 70 0
-737 -147 148 0
-737 -153 154 0
-737 -159 160 0
-742 -39 40 0
-742 -45 46 0
-742 -51 52 0
-742 -57 58 0
-742 -63 64 0
-742 -69 70 0
-742 -147 148 0
-742 -153 154 0
-742 -159 160 0
-747 -39 40 0
-747 -45 46 0
-747 -51 52 0
-747 -57 58 0
-747 -63 64 0
-747 -69 70 0
-747 -147 148 0
-747 -153 154 0
-747 -159 160 0
-752 -39 40 0
-752 -45 46 0
-752 -51 52 0
-752 -57 58 0
-752 -63 64 0
-752 -69 70 0
-752 -147 148 0
-752 -153 154 0
-752 -159 160 0
-757 -39 40 0
-757 -45 46 0
-757 -51 52 0
-757 -57 58 0
-757 -63 64 0
-757 -69 70 0
-757 -147 148 0
-757 -153 154 0
-757 -159 160 0
-762 -39 40 0
-762 -45 46 0
-762 -51 52 0
-762 -57 58 0
-762 -63 64 0
-762 -69 70 0
-762 -147 148 0
-762 -153 154 0
-762 -159 160 0
-767 -39 40 0
-767 -45 46 0
-767 -51 52 0
-767 -57 58 0
-767 -63 64 0
-767 -69 70 0
-767 -147 148 0
-767 -153 154 0
-767 -159 160 0
-772 -39 40 0
-772 -45 46 0
-772 -51 52 0
-772 -57 58 0
-772 -63 64 0
-772 -69 70 0
-772 -147 148 0
-772 -153 154 0
-772 -159 160 0
-897 -39 40 0
-897 -45 46 0
-897 -51 52 0
-897 -57 58 0
-897 -63 64 0
-897 -69 70 0
-897 -147 148 0
-897 -153 154 0
-897 -159 160 0
-902 -39 40 0
-902 -45 46 0
-902 -51 52 0
-902 -57 58 0
-902 -63 64 0
-902 -69 70 0
-902 -147 148 0
-902 -153 154 0
-902 -159 160 0
-907 -39 40 0
-907 -45 46 0
-907 -51 52 0
-907 -57 58 0
-907 -63 64 0
-907 -69 70 0
-907 -147 148 0
-907 -153 154 0
-907 -159 160 0
-912 -39 40 0
-912 -45 46 0
-912 -51 52 0
-912 -57 58 0
-912 -63 64 0
-912 -69 70 0
-912 -147 148 0
-912 -153 154 0
-912 -159 160 0
-917 -39 40 0
-917 -45 46 0
-917 -51 52 0
-917 -57 58 0
-917 -63 64 0
-917 -69 70 0
-917 -147 148 0
-917 -153 154 0
-917 -159 160 0
-922 -39 40 0
-922 -45 46 0
-922 -51 52 0
-922 -57 58 0
-922 -63 64 0
-922 -69 70 0
-922 -147 148 0
-922 -153 154 0
-922 -159 160 0
-927 -39 40 0
-927 -45 46 0
-927 -51 52 0
-927 -57 58 0
-927 -63 64 0
-927 -69 70 0
-927 -147 148 0
-927 -153 154 0
-927 -159 160 0
-932 -39 40 0
-932 -45 46 0
-932 -51 52 0
-932 -57 58 0
-932 -63 64 0
-932 -69 70 0
-932 -147 148 0
-932 -153 154 0
-932 -159 160 0
-937 -39 40 0
-937 -45 46 0
-937 -51 52 0
-937 -57 58 0
-937 -63 64 0
-937 -69 70 0
-937 -147 148 0
-937 -153 154 0
-937 -159 160 0
-942 -39 40 0
-942 -45 46 0
-942 -51 52 0
-942 -57 58 0
-942 -63 64 0
-942 -69 70 0
-942 -147 148 0
-942 -153 154 0
-942 -159 160 0
-947 -39 40 0
-947 -45 46 0
-947 -51 52 0
-947 -57 58 0
-947 -63 64 0
-947 -69 70 0
-947 -147 148 0
-947 -153 154 0
-947 -159 160 0
-952 -39 40 0
-952 -45 46 0
-952 -51 52 0
-952 -57 58 0
-952 -63 64 0
-952 -69 70 0
-952 -147 148 0
-952 -153 154 0
-952 -159 160 0
-957 -39 40 0
-957 -45 46 0
-957 -51 52 0
-957 -57 58 0
-957 -63 64 0
-957 -69 70 0
-957 -147 148 0
-957 -153 154 0
-957 -159 160 0
-962 -39 40 0
-962 -45 46 0
-962 -51 52 0
-962 -57 58 0
-962 -63 64 0
-962 -69 70 0
-962 -147 148 0
-962 -153 154 0
-962 -159 160 0
-967 -39 40 0
-967 -45 46 0
-967 -51 52 0
-967 -57 58 0
-967 -63 64 0
-967 -69 70 0
-967 -147 148 0
-967 -153 154 0
-967 -159 160 0
-972 -39 40 0
-972 -45 46 0
-972 -51 52 0
-972 -57 58 0
-972 -63 64 0
-972 -69 70 0
-972 -147 148 0
-972 -153 154 0
-972 -159 160 0
-977 -39 40 0
-977 -45 46 0
-977 -51 52 0
-977 -57 58 0
-977 -63 64 0
-977 -69 70 0
-977 -147 148 0
-977 -153 154 0
-977 -159 160 0
-982 -39 40 0
-982 -45 46 0
-982 -51 52 0
-982 -57 58 0
-982 -63 64 0
-982 -69 70 0
-982 -147 148 0
-982 -153 154 0
-982 -159 160 0
-987 -39 40 0
-987 -45 46 0
-987 -51 52 0
-987 -57 58 0
-987 -63 64 0
-987 -69 70 0
-987 -147 148 0
-987 -153 154 0
-987 -159 160 0
-992 -39 40 0
-992 -45 46 0
-992 -51 52 0
-992 -57 58 0
-992 -63 64 0
-992 -69 70 0
-992 -147 148 0
-992 -153 154 0
-992 -159 160 0
-997 -39 40 0
-997 -45 46 0
-997 -51 52 0
-997 -57 58 0
-997 -63 64 0
-997 -69 70 0
-997 -147 148 0
-997 -153 154 0
-997 -159 160 0
-1002 -39 40 0
-1002 -45 46 0
-1002 -51 52 0
-1002 -57 58 0
-1002 -63 64 0
-1002 -69 70 0
-1002 -147 148 0
-1002 -153 154 0
-1002 -159 160 0
-1007 -39 40 0
-1007 -45 46 0
-1007 -51 52 0
-1007 -57 58 0
-1007 -63 64 0
-1007 -69 70 0
-1007 -147 148 0
-1007 -153 154 0
-1007 -159 160 0
-1012 -39 40 0
-1012 -45 46 0
-1012 -51 52 0
-1012 -57 58 0
-1012 -63 64 0
-1012 -69 70 0
-1012 -147 148 0
-1012 -153 154 0
-1012 -159 160 0
-1017 -39 40 0
-1017 -45 46 0
-1017 -51 52 0
-1017 -57 58 0
-1017 -63 64 0
-1017 -69 70 0
-1017 -147 148 0
-1017 -153 154 0
-1017 -159 160 0
-1022 -39 40 0
-1022 -45 46 0
-1022 -51 52 0
-1022 -57 58 0
-1022 -63 64 0
-1022 -69 70 0
-1022 -147 148 0
-1022 -153 154 0
-1022 -159 160 0
-1027 -39 40 0
-1027 -45 46 0
-1027 -51 52 0
-1027 -57 58 0
-1027 -63 64 0
-1027 -69 70 0
-1027 -147 148 0
-1027 -153 154 0
-1027 -159 160 0
-1032 -39 40 0
-1032 -45 46 0
-1032 -51 52 0
-1032 -57 58 0
-1032 -63 64 0
-1032 -69 70 0
-1032 -147 148 0
-1032 -153 154 0
-1032 -159 160 0
-1037 -39 40 0
-1037 -45 46 0
-1037 -51 52 0
-1037 -57 58 0
-1037 -63 64 0
-1037 -69 70 0
-1037 -147 148 0
-1037 -153 154 0
-1037 -159 160 0
-1042 -39 40 0
-1042 -45 46 0
-1042 -51 52 0
-1042 -57 58 0
-1042 -63 64 0
-1042 -69 70 0
-1042 -147 148 0
-1042 -153 154 0
-1042 -159 160 0
-1047 -39 40 0
-1047 -45 46 0
-1047 -51 52 0
-1047 -57 58 0
-1047 -63 64 0
-1047 -69 70 0
-1047 -147 148 0
-1047 -153 154 0
-1047 -159 160 0
-1052 -39 40 0
-1052 -45 46 0
-1052 -51 52 0
-1052 -57 58 0
-1052 -63 64 0
-1052 -69 70 0
-1052 -147 148 0
-1052 -153 154 0
-1052 -159 160 0
-1057 -39 40 0
-1057 -45 46 0
-1057 -51 52 0
-1057 -57 58 0
-1057 -63 64 0
-1057 -69 70 0
-1057 -147 148 0
-1057 -153 154 0
-1057 -159 160 0
-1062 -39 40 0
-1062 -45 46 0
-1062 -51 52 0
-1062 -57 58 0
-1062 -63 64 0
-1062 -69 70 0
-1062 -147 148 0
-1062 -153 154 0
-1062 -159 160 0
-1067 -39 40 0
-1067 -45 46 0
-1067 -51 52 0
-1067 -57 58 0
-1067 -63 64 0
-1067 -69 70 0
-1067 -147 148 0
-1067 -153 154 0
-1067 -159 160 0
-1072 -39 40 0
-1072 -45 46 0
-1072 -51 52 0
-1072 -57 58 0
-1072 -63 64 0
-1072 -69 70 0
-1072 -147 148 0
-1072 -153 154 0
-1072 -159 160 0
-657 -75 76 0
-657 -81 82 0
-657 -87 88 0
-657 -93 94 0
-657 -99 100 0
-657 -165 166 0
-657 -171 172 0
-657 -177 178 0
-662 -75 76 0
-662 -81 82 0
-662 -87 88 0
-662 -93 94 0
-662 -99 100 0
-662 -165 166 0
-662 -171 172 0
-662 -177 178 0
-667 -75 76 0
-667 -81 82 0
-667 -87 88 0
-667 -93 94 0
-667 -99 100 0
-667 -165 166 0
-667 -171 172 0
-667 -177 178 0
-672 -75 76 0
-672 -81 82 0
-672 -87 88 0
-672 -93 94 0
-672 -99 100 0
-672 -165 166 0
-672 -171 172 0
-672 -177 178 0
-677 -75 76 0
-677 -81 82 0
-677 -87 88 0
-677 -93 94 0
-677 -99 100 0
-677 -165 166 0
-677 -171 172 0
-677 -177 178 0
-682 -75 76 0
-682 -81 82 0
-682 -87 88 0
-682 -93 94 0
-682 -99 100 0
-682 -165 166 0
-682 -171 172 0
-682 -177 178 0
-687 -75 76 0
-687 -81 82 0
-687 -87 88 0
-687 -93 94 0
-687 -99 100 0
-687 -165 166 0
-687 -171 172 0
-687 -177 178 0
-692 -75 76 0
-692 -81 82 0
-692 -87 88 0
-692 -93 94 0
-692 -99 100 0
-692 -165 166 0
-692 -171 172 0
-692 -177 178 0
-697 -75 76 0
-697 -81 82 0
-697 -87 88 0
-697 -93 94 0
-697 -99 100 0
-697 -165 166 0
-697 -171 172 0
-697 -177 178 0
-702 -75 76 0
-702 -81 82 0
-702 -87 88 0
-702 -93 94 0
-702 -99 100 0
-702 -165 166 0
-702 -171 172 0
-702 -177 178 0
-707 -75 76 0
-707 -81 82 0
-707 -87 88 0
-707 -93 94 0
-707 -99 100 0
-707 -165 166 0
-707 -171 172 0
-707 -177 178 0
-712 -75 76 0
-712 -81 82 0
-712 -87 88 0
-712 -93 94 0
-712 -99 100 0
-712 -165 166 0
-712 -171 172 0
-712 -177 178 0
-717 -75 76 0
-717 -81 82 0
-717 -87 88 0
-717 -93 94 0
-717 -99 100 0
-717 -165 166 0
-717 -171 172 0
-717 -177 178 0
-722 -75 76 0
-722 -81 82 0
-722 -87 88 0
-722 -93 94 0
-722 -99 100 0
-722 -165 166 0
-722 -171 172 0
-722 -177 178 0
-727 -75 76 0
-727 -81 82 0
-727 -87 88 0
-727 -93 94 0
-727 -99 100 0
-727 -165 166 0
-727 -171 172 0
-727 -177 178 0
-732 -75 76 0
-732 -81 82 0
-732 -87 88 0
-732 -93 94 0
-732 -99 100 0
-732 -165 166 0
-732 -171 172 0
-732 -177 178 0
-737 -75 76 0
-737 -81 82 0
-737 -87 88 0
-737 -93 94 0
-737 -99 100 0
-737 -165 166 0
-737 -171 172 0
-737 -177 178 0
-742 -75 76 0
-742 -81 82 0
-742 -87 88 0
-742 -93 94 0
-742 -99 100 0
-742 -165 166 0
-742 -171 172 0
-742 -177 178 0
-747 -75 76 0
-747 -81 82 0
-747 -87 88 0
-747 -93 94 0
-747 -99 100 0
-747 -165 166 0
-747 -171 172 0
-747 -177 178 0
-752 -75 76 0
-752 -81 82 0
-752 -87 88 0
-752 -93 94 0
-752 -99 100 0
-752 -165 166 0
-752 -171 172 0
-752 -177 178 0
-757 -75 76 0
-757 -81 82 0
-757 -87 88 0
-757 -93 94 0
-757 -99 100 0
-757 -165 166 0
-757 -171 172 0
-757 -177 178 0
-762 -75 76 0
-762 -81 82 0
-762 -87 88 0
-762 -93 94 0
-762 -99 100 0
-762 -165 166 0
-762 -171 172 0
-762 -177 178 0
-767 -75 76 0
-767 -81 82 0
-767 -87 88 0
-767 -93 94 0
-767 -99 100 0
-767 -165 166 0
-767 -171 172 0
-767 -177 178 0
-772 -75 76 0
-772 -81 82 0
-772 -87 88 0
-772 -93 94 0
-772 -99 100 0
-772 -165 166 0
-772 -171 172 0
-772 -177 178 0
-777 -75 76 0
-777 -81 82 0
-777 -87 88 0
-777 -93 94 0
-777 -99 100 0
-777 -165 166 0
-777 -171 172 0
-777 -177 178 0
-782 -75 76 0
-782 -81 82 0
-782 -87 88 0
-782 -93 94 0
-782 -99 100 0
-782 -165 166 0
-782 -171 172 0
-782 -177 178 0
-787 -75 76 0
-787 -81 82 0
-787 -87 88 0
-787 -93 94 0
-787 -99 100 0
-787 -165 166 0
-787 -171 172 0
-787 -177 178 0
-792 -75 76 0
-792 -81 82 0
-792 -87 88 0
-792 -93 94 0
-792 -99 100 0
-792 -165 166 0
-792 -171 172 0
-792 -177 178 0
-797 -75 76 0
-797 -81 82 0
-797 -87 88 0
-797 -93 94 0
-797 -99 100 0
-797 -165 166 0
-797 -171 172 0
-797 -177 178 0
-802 -75 76 0
-802 -81 82 0
-802 -87 88 0
-802 -93 94 0
-802 -99 100 0
-802 -165 166 0
-802 -171 172 0
-802 -177 178 0
-807 -75 76 0
-807 -81 82 0
-807 -87 88 0
-807 -93 94 0
-807 -99 100 0
-807 -165 166 0
-807 -171 172 0
-807 -177 178 0
-812 -75 76 0
-812 -81 82 0
-812 -87 88 0
-812 -93 94 0
-812 -99 100 0
-812 -165 166 0
-812 -171 172 0
-812 -177 178 0
-817 -75 76 0
-817 -81 82 0
-817 -87 88 0
-817 -93 94 0
-817 -99 100 0
-817 -165 166 0
-817 -171 172 0
-817 -177 178 0
-822 -75 76 0
-822 -81 82 0
-822 -87 88 0
-822 -93 94 0
-822 -99 100 0
-822 -165 166 0
-822 -171 172 0
-822 -177 178 0
-827 -75 76 0
-827 -81 82 0
-827 -87 88 0
-827 -93 94 0
-827 -99 100 0
-827 -165 166 0
-827 -171 172 0
-827 -177 178 0
-832 -75 76 0
-832 -81 82 0
-832 -87 88 0
-832 -93 94 0
-832 -99 100 0
-832 -165 166 0
-832 -171 172 0
-832 -177 178 0
-837 -75 76 0
-837 -81 82 0
-837 -87 88 0
-837 -93 94 0
-837 -99 100 0
-837 -165 166 0
-837 -171 172 0
-837 -177 178 0
-842 -75 76 0
-842 -81 82 0
-842 -87 88 0
-842 -93 94 0
-842 -99 100 0
-842 -165 166 0
-842 -171 172 0
-842 -177 178 0
-847 -75 76 0
-847 -81 82 0
-847 -87 88 0
-847 -93 94 0
-847 -99 100 0
-847 -165 166 0
-847 -171 172 0
-847 -177 178 0
-852 -75 76 0
-852 -81 82 0
-852 -87 88 0
-852 -93 94 0
-852 -99 100 0
-852 -165 166 0
-852 -171 172 0
-852 -177 178 0
-857 -75 76 0
-857 -81 82 0
-857 -87 88 0
-857 -93 94 0
-857 -99 100 0
-857 -165 166 0
-857 -171 172 0
-857 -177 178 0
-862 -75 76 0
-862 -81 82 0
-862 -87 88 0
-862 -93 94 0
-862 -99 100 0
-862 -165 166 0
-862 -171 172 0
-862 -177 178 0
-867 -75 76 0
-867 -81 82 0
-867 -87 88 0
-867 -93 94 0
-867 -99 100 0
-867 -165 166 0
-867 -171 172 0
-867 -177 178 0
-872 -75 76 0
-872 -81 82 0
-872 -87 88 0
-872 -93 94 0
-872 -99 100 0
-872 -165 166 0
-872 -171 172 0
-872 -177 178 0
-877 -75 76 0
-877 -81 82 0
-877 -87 88 0
-877 -93 94 0
-877 -99 100 0
-877 -165 166 0
-877 -171 172 0
-877 -177 178 0
-882 -75 76 0
-882 -81 82 0
-882 -87 88 0
-882 -93 94 0
-882 -99 100 0
-882 -165 166 0
-882 -171 172 0
-882 -177 178 0
-887 -75 76 0
-887 -81 82 0
-887 -87 88 0
-887 -93 94 0
-887 -99 100 0
-887 -165 166 0
-887 -171 172 0
-887 -177 178 0
-892 -75 76 0
-892 -81 82 0
-892 -87 88 0
-892 -93 94 0
-892 -99 100 0
-892 -165 166 0
-892 -171 172 0
-892 -177 178 0
-997 -75 76 0
-997 -81 82 0
-997 -87 88 0
-997 -93 94 0
-997 -99 100 0
-997 -165 166 0
-997 -171 172 0
-997 -177 178 0
-1002 -75 76 0
-1002 -81 82 0
-1002 -87 88 0
-1002 -93 94 0
-1002 -99 100 0
-1002 -165 166 0
-1002 -171 172 0
-1002 -177 178 0
-1007 -75 76 0
-1007 -81 82 0
-1007 -87 88 0
-1007 -93 94 0
-1007 -99 100 0
-1007 -165 166 0
-1007 -171 172 0
-1007 -177 178 0
-1012 -75 76 0
-1012 -81 82 0
-1012 -87 88 0
-1012 -93 94 0
-1012 -99 100 0
-1012 -165 166 0
-1012 -171 172 0
-1012 -177 178 0
-1017 -75 76 0
-1017 -81 82 0
-1017 -87 88 0
-1017 -93 94 0
-1017 -99 100 0
-1017 -165 166 0
-1017 -171 172 0
-1017 -177 178 0
-1022 -75 76 0
-1022 -81 82 0
-1022 -87 88 0
-1022 -93 94 0
-1022 -99 100 0
-1022 -165 166 0
-1022 -171 172 0
-1022 -177 178 0
-1027 -75 76 0
-1027 -81 82 0
-1027 -87 88 0
-1027 -93 94 0
-1027 -99 100 0
-1027 -165 166 0
-1027 -171 172 0
-1027 -177 178 0
-1032 -75 76 0
-1032 -81 82 0
-1032 -87 88 0
-1032 -93 94 0
-1032 -99 100 0
-1032 -165 166 0
-1032 -171 172 0
-1032 -177 178 0
-1037 -75 76 0
-1037 -81 82 0
-1037 -87 88 0
-1037 -93 94 0
-1037 -99 100 0
-1037 -165 166 0
-1037 -171 172 0
-1037 -177 178 0
-1042 -75 76 0
-1042 -81 82 0
-1042 -87 88 0
-1042 -93 94 0
-1042 -99 100 0
-1042 -165 166 0
-1042 -171 172 0
-1042 -177 178 0
-1047 -75 76 0
-1047 -81 82 0
-1047 -87 88 0
-1047 -93 94 0
-1047 -99 100 0
-1047 -165 166 0
-1047 -171 172 0
-1047 -177 178 0
-1052 -75 76 0
-1052 -81 82 0
-1052 -87 88 0
-1052 -93 94 0
-1052 -99 100 0
-1052 -165 166 0
-1052 -171 172 0
-1052 -177 178 0
-1057 -75 76 0
-1057 -81 82 0
-1057 -87 88 0
-1057 -93 94 0
-1057 -99 100 0
-1057 -165 166 0
-1057 -171 172 0
-1057 -177 178 0
-1062 -75 76 0
-1062 -81 82 0
-1062 -87 88 0
-1062 -93 94 0
-1062 -99 100 0
-1062 -165 166 0
-1062 -171 172 0
-1062 -177 178 0
-1067 -75 76 0
-1067 -81 82 0
-1067 -87 88 0
-1067 -93 94 0
-1067 -99 100 0
-1067 -165 166 0
-1067 -171 172 0
-1067 -177 178 0
-1072 -75 76 0
-1072 -81 82 0
-1072 -87 88 0
-1072 -93 94 0
-1072 -99 100 0
-1072 -165 166 0
-1072 -171 172 0
-1072 -177 178 0
-657 -105 106 0
-657 -111 112 0
-657 -117 118 0
-657 -123 124 0
-657 -183 184 0
-657 -189 190 0
-657 -195 196 0
-662 -105 106 0
-662 -111 112 0
-662 -117 118 0
-662 -123 124 0
-662 -183 184 0
-662 -189 190 0
-662 -195 196 0
-667 -105 106 0
-667 -111 112 0
-667 -117 118 0
-667 -123 124 0
-667 -183 184 0
-667 -189 190 0
-667 -195 196 0
-672 -105 106 0
-672 -111 112 0
-672 -117 118 0
-672 -123 124 0
-672 -183 184 0
-672 -189 190 0
-672 -195 196 0
-677 -105 106 0
-677 -111 112 0
-677 -117 118 0
-677 -123 124 0
-677 -183 184 0
-677 -189 190 0
-677 -195 196 0
-682 -105 106 0
-682 -111 112 0
-682 -117 118 0
-682 -123 124 0
-682 -183 184 0
-682 -189 190 0
-682 -195 196 0
-687 -105 106 0
-687 -111 112 0
-687 -117 118 0
-687 -123 124 0
-687 -183 184 0
-687 -189 190 0
-687 -195 196 0
-692 -105 106 0
-692 -111 112 0
-692 -117 118 0
-692 -123 124 0
-692 -183 184 0
-692 -189 190 0
-692 -195 196 0
-697 -105 106 0
-697 -111 112 0
-697 -117 118 0
-697 -123 124 0
-697 -183 184 0
-697 -189 190 0
-697 -195 196 0
-702 -105 106 0
-702 -111 112 0
-702 -117 118 0
-702 -123 124 0
-702 -183 184 0
-702 -189 190 0
-702 -195 196 0
-707 -105 106 0
-707 -111 112 0
-707 -117 118 0
-707 -123 124 0
-707 -183 184 0
-707 -189 190 0
-707 -195 196 0
-712 -105 106 0
-712 -111 112 0
-712 -117 118 0
-712 -123 124 0
-712 -183 184 0
-712 -189 190 0
-712 -195 196 0
-717 -105 106 0
-717 -111 112 0
-717 -117 118 0
-717 -123 124 0
-717 -183 184 0
-717 -189 190 0
-717 -195 196 0
-722 -105 106 0
-722 -111 112 0
-722 -117 118 0
-722 -123 124 0
-722 -183 184 0
-722 -189 190 0
-722 -195 196 0
-727 -105 106 0
-727 -111 112 0
-727 -117 118 0
-727 -123 124 0
-727 -183 184 0
-727 -189 190 0
-727 -195 196 0
-732 -105 106 0
-732 -111 112 0
-732 -117 118 0
-732 -123 124 0
-732 -183 184 0
-732 -189 190 0
-732 -195 196 0
-737 -105 106 0
-737 -111 112 0
-737 -117 118 0
-737 -123 124 0
-737 -183 184 0
-737 -189 190 0
-737 -195 196 0
-742 -105 106 0
-742 -111 112 0
-742 -117 118 0
-742 -123 124 0
-742 -183 184 0
-742 -189 190 0
-742 -195 196 0
-747 -105 106 0
-747 -111 112 0
-747 -117 118 0
-747 -123 124 0
-747 -183 184 0
-747 -189 190 0
-747 -195 196 0
-752 -105 106 0
-752 -111 112 0
-752 -117 118 0
-752 -123 124 0
-752 -183 184 0
-752 -189 190 0
-752 -195 196 0
-757 -105 106 0
-757 -111 112 0
-757 -117 118 0
-757 -123 124 0
-757 -183 184 0
-757 -189 190 0
-757 -195 196 0
-762 -105 106 0
-762 -111 112 0
-762 -117 118 0
-762 -123 124 0
-762 -183 184 0
-762 -189 190 0
-762 -195 196 0
-767 -105 106 0
-767 -111 112 0
-767 -117 118 0
-767 -123 124 0
-767 -183 184 0
-767 -189 190 0
-767 -195 196 0
-772 -105 106 0
-772 -111 112 0
-772 -117 118 0
-772 -123 124 0
-772 -183 184 0
-772 -189 190 0
-772 -195 196 0
-777 -105 106 0
-777 -111 112 0
-777 -117 118 0
-777 -123 124 0
-777 -183 184 0
-777 -189 190 0
-777 -195 196 0
-782 -105 106 0
-782 -111 112 0
-782 -117 118 0
-782 -123 124 0
-782 -183 184 0
-782 -189 190 0
-782 -195 196 0
-787 -105 106 0
-787 -111 112 0
-787 -117 118 0
-787 -123 124 0
-787 -183 184 0
-787 -189 190 0
-787 -195 196 0
-792 -105 106 0
-792 -111 112 0
-792 -117 118 0
-792 -123 124 0
-792 -183 184 0
-792 -189 190 0
-792 -195 196 0
-797 -105 106 0
-797 -111 112 0
-797 -117 118 0
-797 -123 124 0
-797 -183 184 0
-797 -189 190 0
-797 -195 196 0
-802 -105 106 0
-802 -111 112 0
-802 -117 118 0
-802 -123 124 0
-802 -183 184 0
-802 -189 190 0
-802 -195 196 0
-807 -105 106 0
-807 -111 112 0
-807 -117 118 0
-807 -123 124 0
-807 -183 184 0
-807 -189 190 0
-807 -195 196 0
-812 -105 106 0
-812 -111 112 0
-812 -117 118 0
-812 -123 124 0
-812 -183 184 0
-812 -189 190 0
-812 -195 196 0
-817 -105 106 0
-817 -111 112 0
-817 -117 118 0
-817 -123 124 0
-817 -183 184 0
-817 -189 190 0
-817 -195 196 0
-822 -105 106 0
-822 -111 112 0
-822 -117 118 0
-822 -123 124 0
-822 -183 184 0
-822 -189 190 0
-822 -195 196 0
-827 -105 106 0
-827 -111 112 0
-827 -117 118 0
-827 -123 124 0
-827 -183 184 0
-827 -189 190 0
-827 -195 196 0
-832 -105 106 0
-832 -111 112 0
-832 -117 118 0
-832 -123 124 0
-832 -183 184 0
-832 -189 190 0
-832 -195 196 0
-837 -105 106 0
-837 -111 112 0
-837 -117 118 0
-837 -123 124 0
-837 -183 184 0
-837 -189 190 0
-837 -195 196 0
-842 -105 106 0
-842 -111 112 0
-842 -117 118 0
-842 -123 124 0
-842 -183 184 0
-842 -189 190 0
-842 -195 196 0
-847 -105 106 0
-847 -111 112 0
-847 -117 118 0
-847 -123 124 0
-847 -183 184 0
-847 -189 190 0
-847 -195 196 0
-852 -105 106 0
-852 -111 112 0
-852 -117 118 0
-852 -123 124 0
-852 -183 184 0
-852 -189 190 0
-852 -195 196 0
-857 -105 106 0
-857 -111 112 0
-857 -117 118 0
-857 -123 124 0
-857 -183 184 0
-857 -189 190 0
-857 -195 196 0
-862 -105 106 0
-862 -111 112 0
-862 -117 118 0
-862 -123 124 0
-862 -183 184 0
-862 -189 190 0
-862 -195 196 0
-867 -105 106 0
-867 -111 112 0
-867 -117 118 0
-867 -123 124 0
-867 -183 184 0
-867 -189 190 0
-867 -195 196 0
-872 -105 106 0
-872 -111 112 0
-872 -117 118 0
-872 -123 124 0
-872 -183 184 0
-872 -189 190 0
-872 -195 196 0
-877 -105 106 0
-877 -111 112 0
-877 -117 118 0
-877 -123 124 0
-877 -183 184 0
-877 -189 190 0
-877 -195 196 0
-882 -105 106 0
-882 -111 112 0
-882 -117 118 0
-882 -123 124 0
-882 -183 184 0
-882 -189 190 0
-882 -195 196 0
-887 -105 106 0
-887 -111 112 0
-887 -117 118 0
-887 -123 124 0
-887 -183 184 0
-887 -189 190 0
-887 -195 196 0
-892 -105 106 0
-892 -111 112 0
-892 -117 118 0
-892 -123 124 0
-892 -183 184 0
-892 -189 190 0
-892 -195 196 0
-897 -105 106 0
-897 -111 112 0
-897 -117 118 0
-897 -123 124 0
-897 -183 184 0
-897 -189 190 0
-897 -195 196 0
-902 -105 106 0
-902 -111 112 0
-902 -117 118 0
-902 -123 124 0
-902 -183 184 0
-902 -189 190 0
-902 -195 196 0
-907 -105 106 0
-907 -111 112 0
-907 -117 118 0
-907 -123 124 0
-907 -183 184 0
-907 -189 190 0
-907 -195 196 0
-912 -105 106 0
-912 -111 112 0
-912 -117 118 0
-912 -123 124 0
-912 -183 184 0
-912 -189 190 0
-912 -195 196 0
-917 -105 106 0
-917 -111 112 0
-917 -117 118 0
-917 -123 124 0
-917 -183 184 0
-917 -189 190 0
-917 -195 196 0
-922 -105 106 0
-922 -111 112 0
-922 -117 118 0
-922 -123 124 0
-922 -183 184 0
-922 -189 190 0
-922 -195 196 0
-927 -105 106 0
-927 -111 112 0
-927 -117 118 0
-927 -123 124 0
-927 -183 184 0
-927 -189 190 0
-927 -195 196 0
-932 -105 106 0
-932 -111 112 0
-932 -117 118 0
-932 -123 124 0
-932 -183 184 0
-932 -189 190 0
-932 -195 196 0
-937 -105 106 0
-937 -111 112 0
-937 -117 118 0
-937 -123 124 0
-937 -183 184 0
-937 -189 190 0
-937 -195 196 0
-942 -105 106 0
-942 -111 112 0
-942 -117 118 0
-942 -123 124 0
-942 -183 184 0
-942 -189 190 0
-942 -195 196 0
-947 -105 106 0
-947 -111 112 0
-947 -117 118 0
-947 -123 124 0
-947 -183 184 0
-947 -189 190 0
-947 -195 196 0
-952 -105 106 0
-952 -111 112 0
-952 -117 118 0
-952 -123 124 0
-952 -183 184 0
-952 -189 190 0
-952 -195 196 0
-957 -105 106 0
-957 -111 112 0
-957 -117 118 0
-957 -123 124 0
-957 -183 184 0
-957 -189 190 0
-957 -195 196 0
-962 -105 106 0
-962 -111 112 0
-962 -117 118 0
-962 -123 124 0
-962 -183 184 0
-962 -189 190 0
-962 -195 196 0
-967 -105 106 0
-967 -111 112 0
-967 -117 118 0
-967 -123 124 0
-967 -183 184 0
-967 -189 190 0
-967 -195 196 0
-972 -105 106 0
-972 -111 112 0
-972 -117 118 0
-972 -123 124 0
-972 -183 184 0
-972 -189 190 0
-972 -195 196 0
-977 -105 106 0
-977 -111 112 0
-977 -117 118 0
-977 -123 124 0
-977 -183 184 0
-977 -189 190 0
-977 -195 196 0
-982 -105 106 0
-982 -111 112 0
-982 -117 118 0
-982 -123 124 0
-982 -183 184 0
-982 -189 190 0
-982 -195 196 0
-987 -105 106 0
-987 -111 112 0
-987 -117 118 0
-987 -123 124 0
-987 -183 184 0
-987 -189 190 0
-987 -195 196 0
-992 -105 106 0
-992 -111 112 0
-992 -117 118 0
-992 -123 124 0
-992 -183 184 0
-992 -189 190 0
-992 -195 196 0
-778 -4 5 0
-778 -10 11 0
-778 -16 17 0
-778 -22 23 0
-778 -28 29 0
-778 -34 35 0
-778 -130 131 0
-778 -136 137 0
-778 -142 143 0
-783 -4 5 0
-783 -10 11 0
-783 -16 17 0
-783 -22 23 0
-783 -28 29 0
-783 -34 35 0
-783 -130 131 0
-783 -136 137 0
-783 -142 143 0
-788 -4 5 0
-788 -10 11 0
-788 -16 17 0
-788 -22 23 0
-788 -28 29 0
-788 -34 35 0
-788 -130 131 0
-788 -136 137 0
-788 -142 143 0
-793 -4 5 0
-793 -10 11 0
-793 -16 17 0
-793 -22 23 0
-793 -28 29 0
-793 -34 35 0
-793 -130 131 0
-793 -136 137 0
-793 -142 143 0
-798 -4 5 0
-798 -10 11 0
-798 -16 17 0
-798 -22 23 0
-798 -28 29 0
-798 -34 35 0
-798 -130 131 0
-798 -136 137 0
-798 -142 143 0
-803 -4 5 0
-803 -10 11 0
-803 -16 17 0
-803 -22 23 0
-803 -28 29 0
-803 -34 35 0
-803 -130 131 0
-803 -136 137 0
-803 -142 143 0
-808 -4 5 0
-808 -10 11 0
-808 -16 17 0
-808 -22 23 0
-808 -28 29 0
-808 -34 35 0
-808 -130 131 0
-808 -136 137 0
-808 -142 143 0
-813 -4 5 0
-813 -10 11 0
-813 -16 17 0
-813 -22 23 0
-813 -28 29 0
-813 -34 35 0
-813 -130 131 0
-813 -136 137 0
-813 -142 143 0
-818 -4 5 0
-818 -10 11 0
-818 -16 17 0
-818 -22 23 0
-818 -28 29 0
-818 -34 35 0
-818 -130 131 0
-818 -136 137 0
-818 -142 143 0
-823 -4 5 0
-823 -10 11 0
-823 -16 17 0
-823 -22 23 0
-823 -28 29 0
-823 -34 35 0
-823 -130 131 0
-823 -136 137 0
-823 -142 143 0
-828 -4 5 0
-828 -10 11 0
-828 -16 17 0
-828 -22 23 0
-828 -28 29 0
-828 -34 35 0
-828 -130 131 0
-828 -136 137 0
-828 -142 143 0
-833 -4 5 0
-833 -10 11 0
-833 -16 17 0
-833 -22 23 0
-833 -28 29 0
-833 -34 35 0
-833 -130 131 0
-833 -136 137 0
-833 -142 143 0
-838 -4 5 0
-838 -10 11 0
-838 -16 17 0
-838 -22 23 0
-838 -28 29 0
-838 -34 35 0
-838 -130 131 0
-838 -136 137 0
-838 -142 143 0
-843 -4 5 0
-843 -10 11 0
-843 -16 17 0
-843 -22 23 0
-843 -28 29 0
-843 -34 35 0
-843 -130 131 0
-843 -136 137 0
-843 -142 143 0
-848 -4 5 0
-848 -10 11 0
-848 -16 17 0
-848 -22 23 0
-848 -28 29 0
-848 -34 35 0
-848 -130 131 0
-848 -136 137 0
-848 -142 143 0
-853 -4 5 0
-853 -10 11 0
-853 -16 17 0
-853 -22 23 0
-853 -28 29 0
-853 -34 35 0
-853 -130 131 0
-853 -136 137 0
-853 -142 143 0
-858 -4 5 0
-858 -10 11 0
-858 -16 17 0
-858 -22 23 0
-858 -28 29 0
-858 -34 35 0
-858 -130 131 0
-858 -136 137 0
-858 -142 143 0
-863 -4 5 0
-863 -10 11 0
-863 -16 17 0
-863 -22 23 0
-863 -28 29 0
-863 -34 35 0
-863 -130 131 0
-863 -136 137 0
-863 -142 143 0
-868 -4 5 0
-868 -10 11 0
-868 -16 17 0
-868 -22 23 0
-868 -28 29 0
-868 -34 35 0
-868 -130 131 0
-868 -136 137 0
-868 -142 143 0
-873 -4 5 0
-873 -10 11 0
-873 -16 17 0
-873 -22 23 0
-873 -28 29 0
-873 -34 35 0
-873 -130 131 0
-873 -136 137 0
-873 -142 143 0
-878 -4 5 0
-878 -10 11 0
-878 -16 17 0
-878 -22 23 0
-878 -28 29 0
-878 -34 35 0
-878 -130 131 0
-878 -136 137 0
-878 -142 143 0
-883 -4 5 0
-883 -10 11 0
-883 -16 17 0
-883 -22 23 0
-883 -28 29 0
-883 -34 35 0
-883 -130 131 0
-883 -136 137 0
-883 -142 143 0
-888 -4 5 0
-888 -10 11 0
-888 -16 17 0
-888 -22 23 0
-888 -28 29 0
-888 -34 35 0
-888 -130 131 0
-888 -136 137 0
-888 -142 143 0
-893 -4 5 0
-893 -10 11 0
-893 -16 17 0
-893 -22 23 0
-893 -28 29 0
-893 -34 35 0
-893 -130 131 0
-893 -136 137 0
-893 -142 143 0
-898 -4 5 0
-898 -10 11 0
-898 -16 17 0
-898 -22 23 0
-898 -28 29 0
-898 -34 35 0
-898 -130 131 0
-898 -136 137 0
-898 -142 143 0
-903 -4 5 0
-903 -10 11 0
-903 -16 17 0
-903 -22 23 0
-903 -28 29 0
-903 -34 35 0
-903 -130 131 0
-903 -136 137 0
-903 -142 143 0
-908 -4 5 0
-908 -10 11 0
-908 -16 17 0
-908 -22 23 0
-908 -28 29 0
-908 -34 35 0
-908 -130 131 0
-908 -136 137 0
-908 -142 143 0
-913 -4 5 0
-913 -10 11 0
-913 -16 17 0
-913 -22 23 0
-913 -28 29 0
-913 -34 35 0
-913 -130 131 0
-913 -136 137 0
-913 -142 143 0
-918 -4 5 0
-918 -10 11 0
-918 -16 17 0
-918 -22 23 0
-918 -28 29 0
-918 -34 35 0
-918 -130 131 0
-918 -136 137 0
-918 -142 143 0
-923 -4 5 0
-923 -10 11 0
-923 -16 17 0
-923 -22 23 0
-923 -28 29 0
-923 -34 35 0
-923 -130 131 0
-923 -136 137 0
-923 -142 143 0
-928 -4 5 0
-928 -10 11 0
-928 -16 17 0
-928 -22 23 0
-928 -28 29 0
-928 -34 35 0
-928 -130 131 0
-928 -136 137 0
-928 -142 143 0
-933 -4 5 0
-933 -10 11 0
-933 -16 17 0
-933 -22 23 0
-933 -28 29 0
-933 -34 35 0
-933 -130 131 0
-933 -136 137 0
-933 -142 143 0
-938 -4 5 0
-938 -10 11 0
-938 -16 17 0
-938 -22 23 0
-938 -28 29 0
-938 -34 35 0
-938 -130 131 0
-938 -136 137 0
-938 -142 143 0
-943 -4 5 0
-943 -10 11 0
-943 -16 17 0
-943 -22 23 0
-943 -28 29 0
-943 -34 35 0
-943 -130 131 0
-943 -136 137 0
-943 -142 143 0
-948 -4 5 0
-948 -10 11 0
-948 -16 17 0
-948 -22 23 0
-948 -28 29 0
-948 -34 35 0
-948 -130 131 0
-948 -136 137 0
-948 -142 143 0
-953 -4 5 0
-953 -10 11 0
-953 -16 17 0
-953 -22 23 0
-953 -28 29 0
-953 -34 35 0
-953 -130 131 0
-953 -136 137 0
-953 -142 143 0
-958 -4 5 0
-958 -10 11 0
-958 -16 17 0
-958 -22 23 0
-958 -28 29 0
-958 -34 35 0
-958 -130 131 0
-958 -136 137 0
-958 -142 143 0
-963 -4 5 0
-963 -10 11 0
-963 -16 17 0
-963 -22 23 0
-963 -28 29 0
-963 -34 35 0
-963 -130 131 0
-963 -136 137 0
-963 -142 143 0
-968 -4 5 0
-968 -10 11 0
-968 -16 17 0
-968 -22 23 0
-968 -28 29 0
-968 -34 35 0
-968 -130 131 0
-968 -136 137 0
-968 -142 143 0
-973 -4 5 0
-973 -10 11 0
-973 -16 17 0
-973 -22 23 0
-973 -28 29 0
-973 -34 35 0
-973 -130 131 0
-973 -136 137 0
-973 -142 143 0
-978 -4 5 0
-978 -10 11 0
-978 -16 17 0
-978 -22 23 0
-978 -28 29 0
-978 -34 35 0
-978 -130 131 0
-978 -136 137 0
-978 -142 143 0
-983 -4 5 0
-983 -10 11 0
-983 -16 17 0
-983 -22 23 0
-983 -28 29 0
-983 -34 35 0
-983 -130 131 0
-983 -136 137 0
-983 -142 143 0
-988 -4 5 0
-988 -10 11 0
-988 -16 17 0
-988 -22 23 0
-988 -28 29 0
-988 -34 35 0
-988 -130 131 0
-988 -136 137 0
-988 -142 143 0
-993 -4 5 0
-993 -10 11 0
-993 -16 17 0
-993 -22 23 0
-993 -28 29 0
-993 -34 35 0
-993 -130 131 0
-993 -136 137 0
-993 -142 143 0
-998 -4 5 0
-998 -10 11 0
-998 -16 17 0
-998 -22 23 0
-998 -28 29 0
-998 -34 35 0
-998 -130 131 0
-998 -136 137 0
-998 -142 143 0
-1003 -4 5 0
-1003 -10 11 0
-1003 -16 17 0
-1003 -22 23 0
-1003 -28 29 0
-1003 -34 35 0
-1003 -130 131 0
-1003 -136 137 0
-1003 -142 143 0
-1008 -4 5 0
-1008 -10 11 0
-1008 -16 17 0
-1008 -22 23 0
-1008 -28 29 0
-1008 -34 35 0
-1008 -130 131 0
-1008 -136 137 0
-1008 -142 143 0
-1013 -4 5 0
-1013 -10 11 0
-1013 -16 17 0
-1013 -22 23 0
-1013 -28 29 0
-1013 -34 35 0
-1013 -130 131 0
-1013 -136 137 0
-1013 -142 143 0
-1018 -4 5 0
-1018 -10 11 0
-1018 -16 17 0
-1018 -22 23 0
-1018 -28 29 0
-1018 -34 35 0
-1018 -130 131 0
-1018 -136 137 0
-1018 -142 143 0
-1023 -4 5 0
-1023 -10 11 0
-1023 -16 17 0
-1023 -22 23 0
-1023 -28 29 0
-1023 -34 35 0
-1023 -130 131 0
-1023 -136 137 0
-1023 -142 143 0
-1028 -4 5 0
-1028 -10 11 0
-1028 -16 17 0
-1028 -22 23 0
-1028 -28 29 0
-1028 -34 35 0
-1028 -130 131 0
-1028 -136 137 0
-1028 -142 143 0
-1033 -4 5 0
-1033 -10 11 0
-1033 -16 17 0
-1033 -22 23 0
-1033 -28 29 0
-1033 -34 35 0
-1033 -130 131 0
-1033 -136 137 0
-1033 -142 143 0
-1038 -4 5 0
-1038 -10 11 0
-1038 -16 17 0
-1038 -22 23 0
-1038 -28 29 0
-1038 -34 35 0
-1038 -130 131 0
-1038 -136 137 0
-1038 -142 143 0
-1043 -4 5 0
-1043 -10 11 0
-1043 -16 17 0
-1043 -22 23 0
-1043 -28 29 0
-1043 -34 35 0
-1043 -130 131 0
-1043 -136 137 0
-1043 -142 143 0
-1048 -4 5 0
-1048 -10 11 0
-1048 -16 17 0
-1048 -22 23 0
-1048 -28 29 0
-1048 -34 35 0
-1048 -130 131 0
-1048 -136 137 0
-1048 -142 143 0
-1053 -4 5 0
-1053 -10 11 0
-1053 -16 17 0
-1053 -22 23 0
-1053 -28 29 0
-1053 -34 35 0
-1053 -130 131 0
-1053 -136 137 0
-1053 -142 143 0
-1058 -4 5 0
-1058 -10 11 0
-1058 -16 17 0
-1058 -22 23 0
-1058 -28 29 0
-1058 -34 35 0
-1058 -130 131 0
-1058 -136 137 0
-1058 -142 143 0
-1063 -4 5 0
-1063 -10 11 0
-1063 -16 17 0
-1063 -22 23 0
-1063 -28 29 0
-1063 -34 35 0
-1063 -130 131 0
-1063 -136 137 0
-1063 -142 143 0
-1068 -4 5 0
-1068 -10 11 0
-1068 -16 17 0
-1068 -22 23 0
-1068 -28 29 0
-1068 -34 35 0
-1068 -130 131 0
-1068 -136 137 0
-1068 -142 143 0
-1073 -4 5 0
-1073 -10 11 0
-1073 -16 17 0
-1073 -22 23 0
-1073 -28 29 0
-1073 -34 35 0
-1073 -130 131 0
-1073 -136 137 0
-1073 -142 143 0
-658 -40 41 0
-658 -46 47 0
-658 -52 53 0
-658 -58 59 0
-658 -64 65 0
-658 -70 71 0
-658 -148 149 0
-658 -154 155 0
-658 -160 161 0
-663 -40 41 0
-663 -46 47 0
-663 -52 53 0
-663 -58 59 0
-663 -64 65 0
-663 -70 71 0
-663 -148 149 0
-663 -154 155 0
-663 -160 161 0
-668 -40 41 0
-668 -46 47 0
-668 -52 53 0
-668 -58 59 0
-668 -64 65 0
-668 -70 71 0
-668 -148 149 0
-668 -154 155 0
-668 -160 161 0
-673 -40 41 0
-673 -46 47 0
-673 -52 53 0
-673 -58 59 0
-673 -64 65 0
-673 -70 71 0
-673 -148 149 0
-673 -154 155 0
-673 -160 161 0
-678 -40 41 0
-678 -46 47 0
-678 -52 53 0
-678 -58 59 0
-678 -64 65 0
-678 -70 71 0
-678 -148 149 0
-678 -154 155 0
-678 -160 161 0
-683 -40 41 0
-683 -46 47 0
-683 -52 53 0
-683 -58 59 0
-683 -64 65 0
-683 -70 71 0
-683 -148 149 0
-683 -154 155 0
-683 -160 161 0
-688 -40 41 0
-688 -46 47 0
-688 -52 53 0
-688 -58 59 0
-688 -64 65 0
-688 -70 71 0
-688 -148 149 0
-688 -154 155 0
-688 -160 161 0
-693 -40 41 0
-693 -46 47 0
-693 -52 53 0
-693 -58 59 0
-693 -64 65 0
-693 -70 71 0
-693 -148 149 0
-693 -154 155 0
-693 -160 161 0
-698 -40 41 0
-698 -46 47 0
-698 -52 53 0
-698 -58 59 0
-698 -64 65 0
-698 -70 71 0
-698 -148 149 0
-698 -154 155 0
-698 -160 161 0
-703 -40 41 0
-703 -46 47 0
-703 -52 53 0
-703 -58 59 0
-703 -64 65 0
-703 -70 71 0
-703 -148 149 0
-703 -154 155 0
-703 -160 161 0
-708 -40 41 0
-708 -46 47 0
-708 -52 53 0
-708 -58 59 0
-708 -64 65 0
-708 -70 71 0
-708 -148 149 0
-708 -154 155 0
-708 -160 161 0
-713 -40 41 0
-713 -46 47 0
-713 -52 53 0
-713 -58 59 0
-713 -64 65 0
-713 -70 71 0
-713 -148 149 0
-713 -154 155 0
-713 -160 161 0
-718 -40 41 0
-718 -46 47 0
-718 -52 53 0
-718 -58 59 0
-718 -64 65 0
-718 -70 71 0
-718 -148 149 0
-718 -154 155 0
-718 -160 161 0
-723 -40 41 0
-723 -46 47 0
-723 -52 53 0
-723 -58 59 0
-723 -64 65 0
-723 -70 71 0
-723 -148 149 0
-723 -154 155 0
-723 -160 161 0
-728 -40 41 0
-728 -46 47 0
-728 -52 53 0
-728 -58 59 0
-728 -64 65 0
-728 -70 71 0
-728 -148 149 0
-728 -154 155 0
-728 -160 161 0
-733 -40 41 0
-733 -46 47 0
-733 -52 53 0
-733 -58 59 0
-733 -64 65 0
-733 -70 71 0
-733 -148 149 0
-733 -154 155 0
-733 -160 161 0
-738 -40 41 0
-738 -46 47 0
-738 -52 53 0
-738 -58 59 0
-738 -64 65 0
-738 -70 71 0
-738 -148 149 0
-738 -154 155 0
-738 -160 161 0
-743 -40 41 0
-743 -46 47 0
-743 -52 53 0
-743 -58 59 0
-743 -64 65 0
-743 -70 71 0
-743 -148 149 0
-743 -154 155 0
-743 -160 161 0
-748 -40 41 0
-748 -46 47 0
-748 -52 53 0
-748 -58 59 0
-748 -64 65 0
-748 -70 71 0
-748 -148 149 0
-748 -154 155 0
-748 -160 161 0
-753 -40 41 0
-753 -46 47 0
-753 -52 53 0
-753 -58 59 0
-753 -64 65 0
-753 -70 71 0
-753 -148 149 0
-753 -154 155 0
-753 -160 161 0
-758 -40 41 0
-758 -46 47 0
-758 -52 53 0
-758 -58 59 0
-758 -64 65 0
-758 -70 71 0
-758 -148 149 0
-758 -154 155 0
-758 -160 161 0
-763 -40 41 0
-763 -46 47 0
-763 -52 53 0
-763 -58 59 0
-763 -64 65 0
-763 -70 71 0
-763 -148 149 0
-763 -154 155 0
-763 -160 161 0
-768 -40 41 0
-768 -46 47 0
-768 -52 53 0
-768 -58 59 0
-768 -64 65 0
-768 -70 71 0
-768 -148 149 0
-768 -154 155 0
-768 -160 161 0
-773 -40 41 0
-773 -46 47 0
-773 -52 53 0
-773 -58 59 0
-773 -64 65 0
-773 -70 71 0
-773 -148 149 0
-773 -154 155 0
-773 -160 161 0
-898 -40 41 0
-898 -46 47 0
-898 -52 53 0
-898 -58 59 0
-898 -64 65 0
-898 -70 71 0
-898 -148 149 0
-898 -154 155 0
-898 -160 161 0
-903 -40 41 0
-903 -46 47 0
-903 -52 53 0
-903 -58 59 0
-903 -64 65 0
-903 -70 71 0
-903 -148 149 0
-903 -154 155 0
-903 -160 161 0
-908 -40 41 0
-908 -46 47 0
-908 -52 53 0
-908 -58 59 0
-908 -64 65 0
-908 -70 71 0
-908 -148 149 0
-908 -154 155 0
-908 -160 161 0
-913 -40 41 0
-913 -46 47 0
-913 -52 53 0
-913 -58 59 0
-913 -64 65 0
-913 -70 71 0
-913 -148 149 0
-913 -154 155 0
-913 -160 161 0
-918 -40 41 0
-918 -46 47 0
-918 -52 53 0
-918 -58 59 0
-918 -64 65 0
-918 -70 71 0
-918 -148 149 0
-918 -154 155 0
-918 -160 161 0
-923 -40 41 0
-923 -46 47 0
-923 -52 53 0
-923 -58 59 0
-923 -64 65 0
-923 -70 71 0
-923 -148 149 0
-923 -154 155 0
-923 -160 161 0
-928 -40 41 0
-928 -46 47 0
-928 -52 53 0
-928 -58 59 0
-928 -64 65 0
-928 -70 71 0
-928 -148 149 0
-928 -154 155 0
-928 -160 161 0
-933 -40 41 0
-933 -46 47 0
-933 -52 53 0
-933 -58 59 0
-933 -64 65 0
-933 -70 71 0
-933 -148 149 0
-933 -154 155 0
-933 -160 161 0
-938 -40 41 0
-938 -46 47 0
-938 -52 53 0
-938 -58 59 0
-938 -64 65 0
-938 -70 71 0
-938 -148 149 0
-938 -154 155 0
-938 -160 161 0
-943 -40 41 0
-943 -46 47 0
-943 -52 53 0
-943 -58 59 0
-943 -64 65 0
-943 -70 71 0
-943 -148 149 0
-943 -154 155 0
-943 -160 161 0
-948 -40 41 0
-948 -46 47 0
-948 -52 53 0
-948 -58 59 0
-948 -64 65 0
-948 -70 71 0
-948 -148 149 0
-948 -154 155 0
-948 -160 161 0
-953 -40 41 0
-953 -46 47 0
-953 -52 53 0
-953 -58 59 0
-953 -64 65 0
-953 -70 71 0
-953 -148 149 0
-953 -154 155 0
-953 -160 161 0
-958 -40 41 0
-958 -46 47 0
-958 -52 53 0
-958 -58 59 0
-958 -64 65 0
-958 -70 71 0
-958 -148 149 0
-958 -154 155 0
-958 -160 161 0
-963 -40 41 0
-963 -46 47 0
-963 -52 53 0
-963 -58 59 0
-963 -64 65 0
-963 -70 71 0
-963 -148 149 0
-963 -154 155 0
-963 -160 161 0
-968 -40 41 0
-968 -46 47 0
-968 -52 53 0
-968 -58 59 0
-968 -64 65 0
-968 -70 71 0
-968 -148 149 0
-968 -154 155 0
-968 -160 161 0
-973 -40 41 0
-973 -46 47 0
-973 -52 53 0
-973 -58 59 0
-973 -64 65 0
-973 -70 71 0
-973 -148 149 0
-973 -154 155 0
-973 -160 161 0
-978 -40 41 0
-978 -46 47 0
-978 -52 53 0
-978 -58 59 0
-978 -64 65 0
-978 -70 71 0
-978 -148 149 0
-978 -154 155 0
-978 -160 161 0
-983 -40 41 0
-983 -46 47 0
-983 -52 53 0
-983 -58 59 0
-983 -64 65 0
-983 -70 71 0
-983 -148 149 0
-983 -154 155 0
-983 -160 161 0
-988 -40 41 0
-988 -46 47 0
-988 -52 53 0
-988 -58 59 0
-988 -64 65 0
-988 -70 71 0
-988 -148 149 0
-988 -154 155 0
-988 -160 161 0
-993 -40 41 0
-993 -46 47 0
-993 -52 53 0
-993 -58 59 0
-993 -64 65 0
-993 -70 71 0
-993 -148 149 0
-993 -154 155 0
-993 -160 161 0
-998 -40 41 0
-998 -46 47 0
-998 -52 53 0
-998 -58 59 0
-998 -64 65 0
-998 -70 71 0
-998 -148 149 0
-998 -154 155 0
-998 -160 161 0
-1003 -40 41 0
-1003 -46 47 0
-1003 -52 53 0
-1003 -58 59 0
-1003 -64 65 0
-1003 -70 71 0
-1003 -148 149 0
-1003 -154 155 0
-1003 -160 161 0
-1008 -40 41 0
-1008 -46 47 0
-1008 -52 53 0
-1008 -58 59 0
-1008 -64 65 0
-1008 -70 71 0
-1008 -148 149 0
-1008 -154 155 0
-1008 -160 161 0
-1013 -40 41 0
-1013 -46 47 0
-1013 -52 53 0
-1013 -58 59 0
-1013 -64 65 0
-1013 -70 71 0
-1013 -148 149 0
-1013 -154 155 0
-1013 -160 161 0
-1018 -40 41 0
-1018 -46 47 0
-1018 -52 53 0
-1018 -58 59 0
-1018 -64 65 0
-1018 -70 71 0
-1018 -148 149 0
-1018 -154 155 0
-1018 -160 161 0
-1023 -40 41 0
-1023 -46 47 0
-1023 -52 53 0
-1023 -58 59 0
-1023 -64 65 0
-1023 -70 71 0
-1023 -148 149 0
-1023 -154 155 0
-1023 -160 161 0
-1028 -40 41 0
-1028 -46 47 0
-1028 -52 53 0
-1028 -58 59 0
-1028 -64 65 0
-1028 -70 71 0
-1028 -148 149 0
-1028 -154 155 0
-1028 -160 161 0
-1033 -40 41 0
-1033 -46 47 0
-1033 -52 53 0
-1033 -58 59 0
-1033 -64 65 0
-1033 -70 71 0
-1033 -148 149 0
-1033 -154 155 0
-1033 -160 161 0
-1038 -40 41 0
-1038 -46 47 0
-1038 -52 53 0
-1038 -58 59 0
-1038 -64 65 0
-1038 -70 71 0
-1038 -148 149 0
-1038 -154 155 0
-1038 -160 161 0
-1043 -40 41 0
-1043 -46 47 0
-1043 -52 53 0
-1043 -58 59 0
-1043 -64 65 0
-1043 -70 71 0
-1043 -148 149 0
-1043 -154 155 0
-1043 -160 161 0
-1048 -40 41 0
-1048 -46 47 0
-1048 -52 53 0
-1048 -58 59 0
-1048 -64 65 0
-1048 -70 71 0
-1048 -148 149 0
-1048 -154 155 0
-1048 -160 161 0
-1053 -40 41 0
-1053 -46 47 0
-1053 -52 53 0
-1053 -58 59 0
-1053 -64 65 0
-1053 -70 71 0
-1053 -148 149 0
-1053 -154 155 0
-1053 -160 161 0
-1058 -40 41 0
-1058 -46 47 0
-1058 -52 53 0
-1058 -58 59 0
-1058 -64 65 0
-1058 -70 71 0
-1058 -148 149 0
-1058 -154 155 0
-1058 -160 161 0
-1063 -40 41 0
-1063 -46 47 0
-1063 -52 53 0
-1063 -58 59 0
-1063 -64 65 0
-1063 -70 71 0
-1063 -148 149 0
-1063 -154 155 0
-1063 -160 161 0
-1068 -40 41 0
-1068 -46 47 0
-1068 -52 53 0
-1068 -58 59 0
-1068 -64 65 0
-1068 -70 71 0
-1068 -148 149 0
-1068 -154 155 0
-1068 -160 161 0
-1073 -40 41 0
-1073 -46 47 0
-1073 -52 53 0
-1073 -58 59 0
-1073 -64 65 0
-1073 -70 71 0
-1073 -148 149 0
-1073 -154 155 0
-1073 -160 161 0
-658 -76 77 0
-658 -82 83 0
-658 -88 89 0
-658 -94 95 0
-658 -100 101 0
-658 -166 167 0
-658 -172 173 0
-658 -178 179 0
-663 -76 77 0
-663 -82 83 0
-663 -88 89 0
-663 -94 95 0
-663 -100 101 0
-663 -166 167 0
-663 -172 173 0
-663 -178 179 0
-668 -76 77 0
-668 -82 83 0
-668 -88 89 0
-668 -94 95 0
-668 -100 101 0
-668 -166 167 0
-668 -172 173 0
-668 -178 179 0
-673 -76 77 0
-673 -82 83 0
-673 -88 89 0
-673 -94 95 0
-673 -100 101 0
-673 -166 167 0
-673 -172 173 0
-673 -178 179 0
-678 -76 77 0
-678 -82 83 0
-678 -88 89 0
-678 -94 95 0
-678 -100 101 0
-678 -166 167 0
-678 -172 173 0
-678 -178 179 0
-683 -76 77 0
-683 -82 83 0
-683 -88 89 0
-683 -94 95 0
-683 -100 101 0
-683 -166 167 0
-683 -172 173 0
-683 -178 179 0
-688 -76 77 0
-688 -82 83 0
-688 -88 89 0
-688 -94 95 0
-688 -100 101 0
-688 -166 167 0
-688 -172 173 0
-688 -178 179 0
-693 -76 77 0
-693 -82 83 0
-693 -88 89 0
-693 -94 95 0
-693 -100 101 0
-693 -166 167 0
-693 -172 173 0
-693 -178 179 0
-698 -76 77 0
-698 -82 83 0
-698 -88 89 0
-698 -94 95 0
-698 -100 101 0
-698 -166 167 0
-698 -172 173 0
-698 -178 179 0
-703 -76 77 0
-703 -82 83 0
-703 -88 89 0
-703 -94 95 0
-703 -100 101 0
-703 -166 167 0
-703 -172 173 0
-703 -178 179 0
-708 -76 77 0
-708 -82 83 0
-708 -88 89 0
-708 -94 95 0
-708 -100 101 0
-708 -166 167 0
-708 -172 173 0
-708 -178 179 0
-713 -76 77 0
-713 -82 83 0
-713 -88 89 0
-713 -94 95 0
-713 -100 101 0
-713 -166 167 0
-713 -172 173 0
-713 -178 179 0
-718 -76 77 0
-718 -82 83 0
-718 -88 89 0
-718 -94 95 0
-718 -100 101 0
-718 -166 167 0
-718 -172 173 0
-718 -178 179 0
-723 -76 77 0
-723 -82 83 0
-723 -88 89 0
-723 -94 95 0
-723 -100 101 0
-723 -166 167 0
-723 -172 173 0
-723 -178 179 0
-728 -76 77 0
-728 -82 83 0
-728 -88 89 0
-728 -94 95 0
-728 -100 101 0
-728 -166 167 0
-728 -172 173 0
-728 -178 179 0
-733 -76 77 0
-733 -82 83 0
-733 -88 89 0
-733 -94 95 0
-733 -100 101 0
-733 -166 167 0
-733 -172 173 0
-733 -178 179 0
-738 -76 77 0
-738 -82 83 0
-738 -88 89 0
-738 -94 95 0
-738 -100 101 0
-738 -166 167 0
-738 -172 173 0
-738 -178 179 0
-743 -76 77 0
-743 -82 83 0
-743 -88 89 0
-743 -94 95 0
-743 -100 101 0
-743 -166 167 0
-743 -172 173 0
-743 -178 179 0
-748 -76 77 0
-748 -82 83 0
-748 -88 89 0
-748 -94 95 0
-748 -100 101 0
-748 -166 167 0
-748 -172 173 0
-748 -178 179 0
-753 -76 77 0
-753 -82 83 0
-753 -88 89 0
-753 -94 95 0
-753 -100 101 0
-753 -166 167 0
-753 -172 173 0
-753 -178 179 0
-758 -76 77 0
-758 -82 83 0
-758 -88 89 0
-758 -94 95 0
-758 -100 101 0
-758 -166 167 0
-758 -172 173 0
-758 -178 179 0
-763 -76 77 0
-763 -82 83 0
-763 -88 89 0
-763 -94 95 0
-763 -100 101 0
-763 -166 167 0
-763 -172 173 0
-763 -178 179 0
-768 -76 77 0
-768 -82 83 0
-768 -88 89 0
-768 -94 95 0
-768 -100 101 0
-768 -166 167 0
-768 -172 173 0
-768 -178 179 0
-773 -76 77 0
-773 -82 83 0
-773 -88 89 0
-773 -94 95 0
-773 -100 101 0
-773 -166 167 0
-773 -172 173 0
-773 -178 179 0
-778 -76 77 0
-778 -82 83 0
-778 -88 89 0
-778 -94 95 0
-778 -100 101 0
-778 -166 167 0
-778 -172 173 0
-778 -178 179 0
-783 -76 77 0
-783 -82 83 0
-783 -88 89 0
-783 -94 95 0
-783 -100 101 0
-783 -166 167 0
-783 -172 173 0
-783 -178 179 0
-788 -76 77 0
-788 -82 83 0
-788 -88 89 0
-788 -94 95 0
-788 -100 101 0
-788 -166 167 0
-788 -172 173 0
-788 -178 179 0
-793 -76 77 0
-793 -82 83 0
-793 -88 89 0
-793 -94 95 0
-793 -100 101 0
-793 -166 167 0
-793 -172 173 0
-793 -178 179 0
-798 -76 77 0
-798 -82 83 0
-798 -88 89 0
-798 -94 95 0
-798 -100 101 0
-798 -166 167 0
-798 -172 173 0
-798 -178 179 0
-803 -76 77 0
-803 -82 83 0
-803 -88 89 0
-803 -94 95 0
-803 -100 101 0
-803 -166 167 0
-803 -172 173 0
-803 -178 179 0
-808 -76 77 0
-808 -82 83 0
-808 -88 89 0
-808 -94 95 0
-808 -100 101 0
-808 -166 167 0
-808 -172 173 0
-808 -178 179 0
-813 -76 77 0
-813 -82 83 0
-813 -88 89 0
-813 -94 95 0
-813 -100 101 0
-813 -166 167 0
-813 -172 173 0
-813 -178 179 0
-818 -76 77 0
-818 -82 83 0
-818 -88 89 0
-818 -94 95 0
-818 -100 101 0
-818 -166 167 0
-818 -172 173 0
-818 -178 179 0
-823 -76 77 0
-823 -82 83 0
-823 -88 89 0
-823 -94 95 0
-823 -100 101 0
-823 -166 167 0
-823 -172 173 0
-823 -178 179 0
-828 -76 77 0
-828 -82 83 0
-828 -88 89 0
-828 -94 95 0
-828 -100 101 0
-828 -166 167 0
-828 -172 173 0
-828 -178 179 0
-833 -76 77 0
-833 -82 83 0
-833 -88 89 0
-833 -94 95 0
-833 -100 101 0
-833 -166 167 0
-833 -172 173 0
-833 -178 179 0
-838 -76 77 0
-838 -82 83 0
-838 -88 89 0
-838 -94 95 0
-838 -100 101 0
-838 -166 167 0
-838 -172 173 0
-838 -178 179 0
-843 -76 77 0
-843 -82 83 0
-843 -88 89 0
-843 -94 95 0
-843 -100 101 0
-843 -166 167 0
-843 -172 173 0
-843 -178 179 0
-848 -76 77 0
-848 -82 83 0
-848 -88 89 0
-848 -94 95 0
-848 -100 101 0
-848 -166 167 0
-848 -172 173 0
-848 -178 179 0
-853 -76 77 0
-853 -82 83 0
-853 -88 89 0
-853 -94 95 0
-853 -100 101 0
-853 -166 167 0
-853 -172 173 0
-853 -178 179 0
-858 -76 77 0
-858 -82 83 0
-858 -88 89 0
-858 -94 95 0
-858 -100 101 0
-858 -166 167 0
-858 -172 173 0
-858 -178 179 0
-863 -76 77 0
-863 -82 83 0
-863 -88 89 0
-863 -94 95 0
-863 -100 101 0
-863 -166 167 0
-863 -172 173 0
-863 -178 179 0
-868 -76 77 0
-868 -82 83 0
-868 -88 89 0
-868 -94 95 0
-868 -100 101 0
-868 -166 167 0
-868 -172 173 0
-868 -178 179 0
-873 -76 77 0
-873 -82 83 0
-873 -88 89 0
-873 -94 95 0
-873 -100 101 0
-873 -166 167 0
-873 -172 173 0
-873 -178 179 0
-878 -76 77 0
-878 -82 83 0
-878 -88 89 0
-878 -94 95 0
-878 -100 101 0
-878 -166 167 0
-878 -172 173 0
-878 -178 179 0
-883 -76 77 0
-883 -82 83 0
-883 -88 89 0
-883 -94 95 0
-883 -100 101 0
-883 -166 167 0
-883 -172 173 0
-883 -178 179 0
-888 -76 77 0
-888 -82 83 0
-888 -88 89 0
-888 -94 95 0
-888 -100 101 0
-888 -166 167 0
-888 -172 173 0
-888 -178 179 0
-893 -76 77 0
-893 -82 83 0
-893 -88 89 0
-893 -94 95 0
-893 -100 101 0
-893 -166 167 0
-893 -172 173 0
-893 -178 179 0
-998 -76 77 0
-998 -82 83 0
-998 -88 89 0
-998 -94 95 0
-998 -100 101 0
-998 -166 167 0
-998 -172 173 0
-998 -178 179 0
-1003 -76 77 0
-1003 -82 83 0
-1003 -88 89 0
-1003 -94 95 0
-1003 -100 101 0
-1003 -166 167 0
-1003 -172 173 0
-1003 -178 179 0
-1008 -76 77 0
-1008 -82 83 0
-1008 -88 89 0
-1008 -94 95 0
-1008 -100 101 0
-1008 -166 167 0
-1008 -172 173 0
-1008 -178 179 0
-1013 -76 77 0
-1013 -82 83 0
-1013 -88 89 0
-1013 -94 95 0
-1013 -100 101 0
-1013 -166 167 0
-1013 -172 173 0
-1013 -178 179 0
-1018 -76 77 0
-1018 -82 83 0
-1018 -88 89 0
-1018 -94 95 0
-1018 -100 101 0
-1018 -166 167 0
-1018 -172 173 0
-1018 -178 179 0
-1023 -76 77 0
-1023 -82 83 0
-1023 -88 89 0
-1023 -94 95 0
-1023 -100 101 0
-1023 -166 167 0
-1023 -172 173 0
-1023 -178 179 0
-1028 -76 77 0
-1028 -82 83 0
-1028 -88 89 0
-1028 -94 95 0
-1028 -100 101 0
-1028 -166 167 0
-1028 -172 173 0
-1028 -178 179 0
-1033 -76 77 0
-1033 -82 83 0
-1033 -88 89 0
-1033 -94 95 0
-1033 -100 101 0
-1033 -166 167 0
-1033 -172 173 0
-1033 -178 179 0
-1038 -76 77 0
-1038 -82 83 0
-1038 -88 89 0
-1038 -94 95 0
-1038 -100 101 0
-1038 -166 167 0
-1038 -172 173 0
-1038 -178 179 0
-1043 -76 77 0
-1043 -82 83 0
-1043 -88 89 0
-1043 -94 95 0
-1043 -100 101 0
-1043 -166 167 0
-1043 -172 173 0
-1043 -178 179 0
-1048 -76 77 0
-1048 -82 83 0
-1048 -88 89 0
-1048 -94 95 0
-1048 -100 101 0
-1048 -166 167 0
-1048 -172 173 0
-1048 -178 179 0
-1053 -76 77 0
-1053 -82 83 0
-1053 -88 89 0
-1053 -94 95 0
-1053 -100 101 0
-1053 -166 167 0
-1053 -172 173 0
-1053 -178 179 0
-1058 -76 77 0
-1058 -82 83 0
-1058 -88 89 0
-1058 -94 95 0
-1058 -100 101 0
-1058 -166 167 0
-1058 -172 173 0
-1058 -178 179 0
-1063 -76 77 0
-1063 -82 83 0
-1063 -88 89 0
-1063 -94 95 0
-1063 -100 101 0
-1063 -166 167 0
-1063 -172 173 0
-1063 -178 179 0
-1068 -76 77 0
-1068 -82 83 0
-1068 -88 89 0
-1068 -94 95 0
-1068 -100 101 0
-1068 -166 167 0
-1068 -172 173 0
-1068 -178 179 0
-1073 -76 77 0
-1073 -82 83 0
-1073 -88 89 0
-1073 -94 95 0
-1073 -100 101 0
-1073 -166 167 0
-1073 -172 173 0
-1073 -178 179 0
-658 -106 107 0
-658 -112 113 0
-658 -118 119 0
-658 -124 125 0
-658 -184 185 0
-658 -190 191 0
-658 -196 197 0
-663 -106 107 0
-663 -112 113 0
-663 -118 119 0
-663 -124 125 0
-663 -184 185 0
-663 -190 191 0
-663 -196 197 0
-668 -106 107 0
-668 -112 113 0
-668 -118 119 0
-668 -124 125 0
-668 -184 185 0
-668 -190 191 0
-668 -196 197 0
-673 -106 107 0
-673 -112 113 0
-673 -118 119 0
-673 -124 125 0
-673 -184 185 0
-673 -190 191 0
-673 -196 197 0
-678 -106 107 0
-678 -112 113 0
-678 -118 119 0
-678 -124 125 0
-678 -184 185 0
-678 -190 191 0
-678 -196 197 0
-683 -106 107 0
-683 -112 113 0
-683 -118 119 0
-683 -124 125 0
-683 -184 185 0
-683 -190 191 0
-683 -196 197 0
-688 -106 107 0
-688 -112 113 0
-688 -118 119 0
-688 -124 125 0
-688 -184 185 0
-688 -190 191 0
-688 -196 197 0
-693 -106 107 0
-693 -112 113 0
-693 -118 119 0
-693 -124 125 0
-693 -184 185 0
-693 -190 191 0
-693 -196 197 0
-698 -106 107 0
-698 -112 113 0
-698 -118 119 0
-698 -124 125 0
-698 -184 185 0
-698 -190 191 0
-698 -196 197 0
-703 -106 107 0
-703 -112 113 0
-703 -118 119 0
-703 -124 125 0
-703 -184 185 0
-703 -190 191 0
-703 -196 197 0
-708 -106 107 0
-708 -112 113 0
-708 -118 119 0
-708 -124 125 0
-708 -184 185 0
-708 -190 191 0
-708 -196 197 0
-713 -106 107 0
-713 -112 113 0
-713 -118 119 0
-713 -124 125 0
-713 -184 185 0
-713 -190 191 0
-713 -196 197 0
-718 -106 107 0
-718 -112 113 0
-718 -118 119 0
-718 -124 125 0
-718 -184 185 0
-718 -190 191 0
-718 -196 197 0
-723 -106 107 0
-723 -112 113 0
-723 -118 119 0
-723 -124 125 0
-723 -184 185 0
-723 -190 191 0
-723 -196 197 0
-728 -106 107 0
-728 -112 113 0
-728 -118 119 0
-728 -124 125 0
-728 -184 185 0
-728 -190 191 0
-728 -196 197 0
-733 -106 107 0
-733 -112 113 0
-733 -118 119 0
-733 -124 125 0
-733 -184 185 0
-733 -190 191 0
-733 -196 197 0
-738 -106 107 0
-738 -112 113 0
-738 -118 119 0
-738 -124 125 0
-738 -184 185 0
-738 -190 191 0
-738 -196 197 0
-743 -106 107 0
-743 -112 113 0
-743 -118 119 0
-743 -124 125 0
-743 -184 185 0
-743 -190 191 0
-743 -196 197 0
-748 -106 107 0
-748 -112 113 0
-748 -118 119 0
-748 -124 125 0
-748 -184 185 0
-748 -190 191 0
-748 -196 197 0
-753 -106 107 0
-753 -112 113 0
-753 -118 119 0
-753 -124 125 0
-753 -184 185 0
-753 -190 191 0
-753 -196 197 0
-758 -106 107 0
-758 -112 113 0
-758 -118 119 0
-758 -124 125 0
-758 -184 185 0
-758 -190 191 0
-758 -196 197 0
-763 -106 107 0
-763 -112 113 0
-763 -118 119 0
-763 -124 125 0
-763 -184 185 0
-763 -190 191 0
-763 -196 197 0
-768 -106 107 0
-768 -112 113 0
-768 -118 119 0
-768 -124 125 0
-768 -184 185 0
-768 -190 191 0
-768 -196 197 0
-773 -106 107 0
-773 -112 113 0
-773 -118 119 0
-773 -124 125 0
-773 -184 185 0
-773 -190 191 0
-773 -196 197 0
-778 -106 107 0
-778 -112 113 0
-778 -118 119 0
-778 -124 125 0
-778 -184 185 0
-778 -190 191 0
-778 -196 197 0
-783 -106 107 0
-783 -112 113 0
-783 -118 119 0
-783 -124 125 0
-783 -184 185 0
-783 -190 191 0
-783 -196 197 0
-788 -106 107 0
-788 -112 113 0
-788 -118 119 0
-788 -124 125 0
-788 -184 185 0
-788 -190 191 0
-788 -196 197 0
-793 -106 107 0
-793 -112 113 0
-793 -118 119 0
-793 -124 125 0
-793 -184 185 0
-793 -190 191 0
-793 -196 197 0
-798 -106 107 0
-798 -112 113 0
-798 -118 119 0
-798 -124 125 0
-798 -184 185 0
-798 -190 191 0
-798 -196 197 0
-803 -106 107 0
-803 -112 113 0
-803 -118 119 0
-803 -124 125 0
-803 -184 185 0
-803 -190 191 0
-803 -196 197 0
-808 -106 107 0
-808 -112 113 0
-808 -118 119 0
-808 -124 125 0
-808 -184 185 0
-808 -190 191 0
-808 -196 197 0
-813 -106 107 0
-813 -112 113 0
-813 -118 119 0
-813 -124 125 0
-813 -184 185 0
-813 -190 191 0
-813 -196 197 0
-818 -106 107 0
-818 -112 113 0
-818 -118 119 0
-818 -124 125 0
-818 -184 185 0
-818 -190 191 0
-818 -196 197 0
-823 -106 107 0
-823 -112 113 0
-823 -118 119 0
-823 -124 125 0
-823 -184 185 0
-823 -190 191 0
-823 -196 197 0
-828 -106 107 0
-828 -112 113 0
-828 -118 119 0
-828 -124 125 0
-828 -184 185 0
-828 -190 191 0
-828 -196 197 0
-833 -106 107 0
-833 -112 113 0
-833 -118 119 0
-833 -124 125 0
-833 -184 185 0
-833 -190 191 0
-833 -196 197 0
-838 -106 107 0
-838 -112 113 0
-838 -118 119 0
-838 -124 125 0
-838 -184 185 0
-838 -190 191 0
-838 -196 197 0
-843 -106 107 0
-843 -112 113 0
-843 -118 119 0
-843 -124 125 0
-843 -184 185 0
-843 -190 191 0
-843 -196 197 0
-848 -106 107 0
-848 -112 113 0
-848 -118 119 0
-848 -124 125 0
-848 -184 185 0
-848 -190 191 0
-848 -196 197 0
-853 -106 107 0
-853 -112 113 0
-853 -118 119 0
-853 -124 125 0
-853 -184 185 0
-853 -190 191 0
-853 -196 197 0
-858 -106 107 0
-858 -112 113 0
-858 -118 119 0
-858 -124 125 0
-858 -184 185 0
-858 -190 191 0
-858 -196 197 0
-863 -106 107 0
-863 -112 113 0
-863 -118 119 0
-863 -124 125 0
-863 -184 185 0
-863 -190 191 0
-863 -196 197 0
-868 -106 107 0
-868 -112 113 0
-868 -118 119 0
-868 -124 125 0
-868 -184 185 0
-868 -190 191 0
-868 -196 197 0
-873 -106 107 0
-873 -112 113 0
-873 -118 119 0
-873 -124 125 0
-873 -184 185 0
-873 -190 191 0
-873 -196 197 0
-878 -106 107 0
-878 -112 113 0
-878 -118 119 0
-878 -124 125 0
-878 -184 185 0
-878 -190 191 0
-878 -196 197 0
-883 -106 107 0
-883 -112 113 0
-883 -118 119 0
-883 -124 125 0
-883 -184 185 0
-883 -190 191 0
-883 -196 197 0
-888 -106 107 0
-888 -112 113 0
-888 -118 119 0
-888 -124 125 0
-888 -184 185 0
-888 -190 191 0
-888 -196 197 0
-893 -106 107 0
-893 -112 113 0
-893 -118 119 0
-893 -124 125 0
-893 -184 185 0
-893 -190 191 0
-893 -196 197 0
-898 -106 107 0
-898 -112 113 0
-898 -118 119 0
-898 -124 125 0
-898 -184 185 0
-898 -190 191 0
-898 -196 197 0
-903 -106 107 0
-903 -112 113 0
-903 -118 119 0
-903 -124 125 0
-903 -184 185 0
-903 -190 191 0
-903 -196 197 0
-908 -106 107 0
-908 -112 113 0
-908 -118 119 0
-908 -124 125 0
-908 -184 185 0
-908 -190 191 0
-908 -196 197 0
-913 -106 107 0
-913 -112 113 0
-913 -118 119 0
-913 -124 125 0
-913 -184 185 0
-913 -190 191 0
-913 -196 197 0
-918 -106 107 0
-918 -112 113 0
-918 -118 119 0
-918 -124 125 0
-918 -184 185 0
-918 -190 191 0
-918 -196 197 0
-923 -106 107 0
-923 -112 113 0
-923 -118 119 0
-923 -124 125 0
-923 -184 185 0
-923 -190 191 0
-923 -196 197 0
-928 -106 107 0
-928 -112 113 0
-928 -118 119 0
-928 -124 125 0
-928 -184 185 0
-928 -190 191 0
-928 -196 197 0
-933 -106 107 0
-933 -112 113 0
-933 -118 119 0
-933 -124 125 0
-933 -184 185 0
-933 -190 191 0
-933 -196 197 0
-938 -106 107 0
-938 -112 113 0
-938 -118 119 0
-938 -124 125 0
-938 -184 185 0
-938 -190 191 0
-938 -196 197 0
-943 -106 107 0
-943 -112 113 0
-943 -118 119 0
-943 -124 125 0
-943 -184 185 0
-943 -190 191 0
-943 -196 197 0
-948 -106 107 0
-948 -112 113 0
-948 -118 119 0
-948 -124 125 0
-948 -184 185 0
-948 -190 191 0
-948 -196 197 0
-953 -106 107 0
-953 -112 113 0
-953 -118 119 0
-953 -124 125 0
-953 -184 185 0
-953 -190 191 0
-953 -196 197 0
-958 -106 107 0
-958 -112 113 0
-958 -118 119 0
-958 -124 125 0
-958 -184 185 0
-958 -190 191 0
-958 -196 197 0
-963 -106 107 0
-963 -112 113 0
-963 -118 119 0
-963 -124 125 0
-963 -184 185 0
-963 -190 191 0
-963 -196 197 0
-968 -106 107 0
-968 -112 113 0
-968 -118 119 0
-968 -124 125 0
-968 -184 185 0
-968 -190 191 0
-968 -196 197 0
-973 -106 107 0
-973 -112 113 0
-973 -118 119 0
-973 -124 125 0
-973 -184 185 0
-973 -190 191 0
-973 -196 197 0
-978 -106 107 0
-978 -112 113 0
-978 -118 119 0
-978 -124 125 0
-978 -184 185 0
-978 -190 191 0
-978 -196 197 0
-983 -106 107 0
-983 -112 113 0
-983 -118 119 0
-983 -124 125 0
-983 -184 185 0
-983 -190 191 0
-983 -196 197 0
-988 -106 107 0
-988 -112 113 0
-988 -118 119 0
-988 -124 125 0
-988 -184 185 0
-988 -190 191 0
-988 -196 197 0
-993 -106 107 0
-993 -112 113 0
-993 -118 119 0
-993 -124 125 0
-993 -184 185 0
-993 -190 191 0
-993 -196 197 0
-779 -5 6 0
-779 -11 12 0
-779 -17 18 0
-779 -23 24 0
-779 -29 30 0
-779 -35 36 0
-779 -131 132 0
-779 -137 138 0
-779 -143 144 0
-784 -5 6 0
-784 -11 12 0
-784 -17 18 0
-784 -23 24 0
-784 -29 30 0
-784 -35 36 0
-784 -131 132 0
-784 -137 138 0
-784 -143 144 0
-789 -5 6 0
-789 -11 12 0
-789 -17 18 0
-789 -23 24 0
-789 -29 30 0
-789 -35 36 0
-789 -131 132 0
-789 -137 138 0
-789 -143 144 0
-794 -5 6 0
-794 -11 12 0
-794 -17 18 0
-794 -23 24 0
-794 -29 30 0
-794 -35 36 0
-794 -131 132 0
-794 -137 138 0
-794 -143 144 0
-799 -5 6 0
-799 -11 12 0
-799 -17 18 0
-799 -23 24 0
-799 -29 30 0
-799 -35 36 0
-799 -131 132 0
-799 -137 138 0
-799 -143 144 0
-804 -5 6 0
-804 -11 12 0
-804 -17 18 0
-804 -23 24 0
-804 -29 30 0
-804 -35 36 0
-804 -131 132 0
-804 -137 138 0
-804 -143 144 0
-809 -5 6 0
-809 -11 12 0
-809 -17 18 0
-809 -23 24 0
-809 -29 30 0
-809 -35 36 0
-809 -131 132 0
-809 -137 138 0
-809 -143 144 0
-814 -5 6 0
-814 -11 12 0
-814 -17 18 0
-814 -23 24 0
-814 -29 30 0
-814 -35 36 0
-814 -131 132 0
-814 -137 138 0
-814 -143 144 0
-819 -5 6 0
-819 -11 12 0
-819 -17 18 0
-819 -23 24 0
-819 -29 30 0
-819 -35 36 0
-819 -131 132 0
-819 -137 138 0
-819 -143 144 0
-824 -5 6 0
-824 -11 12 0
-824 -17 18 0
-824 -23 24 0
-824 -29 30 0
-824 -35 36 0
-824 -131 132 0
-824 -137 138 0
-824 -143 144 0
-829 -5 6 0
-829 -11 12 0
-829 -17 18 0
-829 -23 24 0
-829 -29 30 0
-829 -35 36 0
-829 -131 132 0
-829 -137 138 0
-829 -143 144 0
-834 -5 6 0
-834 -11 12 0
-834 -17 18 0
-834 -23 24 0
-834 -29 30 0
-834 -35 36 0
-834 -131 132 0
-834 -137 138 0
-834 -143 144 0
-839 -5 6 0
-839 -11 12 0
-839 -17 18 0
-839 -23 24 0
-839 -29 30 0
-839 -35 36 0
-839 -131 132 0
-839 -137 138 0
-839 -143 144 0
-844 -5 6 0
-844 -11 12 0
-844 -17 18 0
-844 -23 24 0
-844 -29 30 0
-844 -35 36 0
-844 -131 132 0
-844 -137 138 0
-844 -143 144 0
-849 -5 6 0
-849 -11 12 0
-849 -17 18 0
-849 -23 24 0
-849 -29 30 0
-849 -35 36 0
-849 -131 132 0
-849 -137 138 0
-849 -143 144 0
-854 -5 6 0
-854 -11 12 0
-854 -17 18 0
-854 -23 24 0
-854 -29 30 0
-854 -35 36 0
-854 -131 132 0
-854 -137 138 0
-854 -143 144 0
-859 -5 6 0
-859 -11 12 0
-859 -17 18 0
-859 -23 24 0
-859 -29 30 0
-859 -35 36 0
-859 -131 132 0
-859 -137 138 0
-859 -143 144 0
-864 -5 6 0
-864 -11 12 0
-864 -17 18 0
-864 -23 24 0
-864 -29 30 0
-864 -35 36 0
-864 -131 132 0
-864 -137 138 0
-864 -143 144 0
-869 -5 6 0
-869 -11 12 0
-869 -17 18 0
-869 -23 24 0
-869 -29 30 0
-869 -35 36 0
-869 -131 132 0
-869 -137 138 0
-869 -143 144 0
-874 -5 6 0
-874 -11 12 0
-874 -17 18 0
-874 -23 24 0
-874 -29 30 0
-874 -35 36 0
-874 -131 132 0
-874 -137 138 0
-874 -143 144 0
-879 -5 6 0
-879 -11 12 0
-879 -17 18 0
-879 -23 24 0
-879 -29 30 0
-879 -35 36 0
-879 -131 132 0
-879 -137 138 0
-879 -143 144 0
-884 -5 6 0
-884 -11 12 0
-884 -17 18 0
-884 -23 24 0
-884 -29 30 0
-884 -35 36 0
-884 -131 132 0
-884 -137 138 0
-884 -143 144 0
-889 -5 6 0
-889 -11 12 0
-889 -17 18 0
-889 -23 24 0
-889 -29 30 0
-889 -35 36 0
-889 -131 132 0
-889 -137 138 0
-889 -143 144 0
-894 -5 6 0
-894 -11 12 0
-894 -17 18 0
-894 -23 24 0
-894 -29 30 0
-894 -35 36 0
-894 -131 132 0
-894 -137 138 0
-894 -143 144 0
-899 -5 6 0
-899 -11 12 0
-899 -17 18 0
-899 -23 24 0
-899 -29 30 0
-899 -35 36 0
-899 -131 132 0
-899 -137 138 0
-899 -143 144 0
-904 -5 6 0
-904 -11 12 0
-904 -17 18 0
-904 -23 24 0
-904 -29 30 0
-904 -35 36 0
-904 -131 132 0
-904 -137 138 0
-904 -143 144 0
-909 -5 6 0
-909 -11 12 0
-909 -17 18 0
-909 -23 24 0
-909 -29 30 0
-909 -35 36 0
-909 -131 132 0
-909 -137 138 0
-909 -143 144 0
-914 -5 6 0
-914 -11 12 0
-914 -17 18 0
-914 -23 24 0
-914 -29 30 0
-914 -35 36 0
-914 -131 132 0
-914 -137 138 0
-914 -143 144 0
-919 -5 6 0
-919 -11 12 0
-919 -17 18 0
-919 -23 24 0
-919 -29 30 0
-919 -35 36 0
-919 -131 132 0
-919 -137 138 0
-919 -143 144 0
-924 -5 6 0
-924 -11 12 0
-924 -17 18 0
-924 -23 24 0
-924 -29 30 0
-924 -35 36 0
-924 -131 132 0
-924 -137 138 0
-924 -143 144 0
-929 -5 6 0
-929 -11 12 0
-929 -17 18 0
-929 -23 24 0
-929 -29 30 0
-929 -35 36 0
-929 -131 132 0
-929 -137 138 0
-929 -143 144 0
-934 -5 6 0
-934 -11 12 0
-934 -17 18 0
-934 -23 24 0
-934 -29 30 0
-934 -35 36 0
-934 -131 132 0
-934 -137 138 0
-934 -143 144 0
-939 -5 6 0
-939 -11 12 0
-939 -17 18 0
-939 -23 24 0
-939 -29 30 0
-939 -35 36 0
-939 -131 132 0
-939 -137 138 0
-939 -143 144 0
-944 -5 6 0
-944 -11 12 0
-944 -17 18 0
-944 -23 24 0
-944 -29 30 0
-944 -35 36 0
-944 -131 132 0
-944 -137 138 0
-944 -143 144 0
-949 -5 6 0
-949 -11 12 0
-949 -17 18 0
-949 -23 24 0
-949 -29 30 0
-949 -35 36 0
-949 -131 132 0
-949 -137 138 0
-949 -143 144 0
-954 -5 6 0
-954 -11 12 0
-954 -17 18 0
-954 -23 24 0
-954 -29 30 0
-954 -35 36 0
-954 -131 132 0
-954 -137 138 0
-954 -143 144 0
-959 -5 6 0
-959 -11 12 0
-959 -17 18 0
-959 -23 24 0
-959 -29 30 0
-959 -35 36 0
-959 -131 132 0
-959 -137 138 0
-959 -143 144 0
-964 -5 6 0
-964 -11 12 0
-964 -17 18 0
-964 -23 24 0
-964 -29 30 0
-964 -35 36 0
-964 -131 132 0
-964 -137 138 0
-964 -143 144 0
-969 -5 6 0
-969 -11 12 0
-969 -17 18 0
-969 -23 24 0
-969 -29 30 0
-969 -35 36 0
-969 -131 132 0
-969 -137 138 0
-969 -143 144 0
-974 -5 6 0
-974 -11 12 0
-974 -17 18 0
-974 -23 24 0
-974 -29 30 0
-974 -35 36 0
-974 -131 132 0
-974 -137 138 0
-974 -143 144 0
-979 -5 6 0
-979 -11 12 0
-979 -17 18 0
-979 -23 24 0
-979 -29 30 0
-979 -35 36 0
-979 -131 132 0
-979 -137 138 0
-979 -143 144 0
-984 -5 6 0
-984 -11 12 0
-984 -17 18 0
-984 -23 24 0
-984 -29 30 0
-984 -35 36 0
-984 -131 132 0
-984 -137 138 0
-984 -143 144 0
-989 -5 6 0
-989 -11 12 0
-989 -17 18 0
-989 -23 24 0
-989 -29 30 0
-989 -35 36 0
-989 -131 132 0
-989 -137 138 0
-989 -143 144 0
-994 -5 6 0
-994 -11 12 0
-994 -17 18 0
-994 -23 24 0
-994 -29 30 0
-994 -35 36 0
-994 -131 132 0
-994 -137 138 0
-994 -143 144 0
-999 -5 6 0
-999 -11 12 0
-999 -17 18 0
-999 -23 24 0
-999 -29 30 0
-999 -35 36 0
-999 -131 132 0
-999 -137 138 0
-999 -143 144 0
-1004 -5 6 0
-1004 -11 12 0
-1004 -17 18 0
-1004 -23 24 0
-1004 -29 30 0
-1004 -35 36 0
-1004 -131 132 0
-1004 -137 138 0
-1004 -143 144 0
-1009 -5 6 0
-1009 -11 12 0
-1009 -17 18 0
-1009 -23 24 0
-1009 -29 30 0
-1009 -35 36 0
-1009 -131 132 0
-1009 -137 138 0
-1009 -143 144 0
-1014 -5 6 0
-1014 -11 12 0
-1014 -17 18 0
-1014 -23 24 0
-1014 -29 30 0
-1014 -35 36 0
-1014 -131 132 0
-1014 -137 138 0
-1014 -143 144 0
-1019 -5 6 0
-1019 -11 12 0
-1019 -17 18 0
-1019 -23 24 0
-1019 -29 30 0
-1019 -35 36 0
-1019 -131 132 0
-1019 -137 138 0
-1019 -143 144 0
-1024 -5 6 0
-1024 -11 12 0
-1024 -17 18 0
-1024 -23 24 0
-1024 -29 30 0
-1024 -35 36 0
-1024 -131 132 0
-1024 -137 138 0
-1024 -143 144 0
-1029 -5 6 0
-1029 -11 12 0
-1029 -17 18 0
-1029 -23 24 0
-1029 -29 30 0
-1029 -35 36 0
-1029 -131 132 0
-1029 -137 138 0
-1029 -143 144 0
-1034 -5 6 0
-1034 -11 12 0
-1034 -17 18 0
-1034 -23 24 0
-1034 -29 30 0
-1034 -35 36 0
-1034 -131 132 0
-1034 -137 138 0
-1034 -143 144 0
-1039 -5 6 0
-1039 -11 12 0
-1039 -17 18 0
-1039 -23 24 0
-1039 -29 30 0
-1039 -35 36 0
-1039 -131 132 0
-1039 -137 138 0
-1039 -143 144 0
-1044 -5 6 0
-1044 -11 12 0
-1044 -17 18 0
-1044 -23 24 0
-1044 -29 30 0
-1044 -35 36 0
-1044 -131 132 0
-1044 -137 138 0
-1044 -143 144 0
-1049 -5 6 0
-1049 -11 12 0
-1049 -17 18 0
-1049 -23 24 0
-1049 -29 30 0
-1049 -35 36 0
-1049 -131 132 0
-1049 -137 138 0
-1049 -143 144 0
-1054 -5 6 0
-1054 -11 12 0
-1054 -17 18 0
-1054 -23 24 0
-1054 -29 30 0
-1054 -35 36 0
-1054 -131 132 0
-1054 -137 138 0
-1054 -143 144 0
-1059 -5 6 0
-1059 -11 12 0
-1059 -17 18 0
-1059 -23 24 0
-1059 -29 30 0
-1059 -35 36 0
-1059 -131 132 0
-1059 -137 138 0
-1059 -143 144 0
-1064 -5 6 0
-1064 -11 12 0
-1064 -17 18 0
-1064 -23 24 0
-1064 -29 30 0
-1064 -35 36 0
-1064 -131 132 0
-1064 -137 138 0
-1064 -143 144 0
-1069 -5 6 0
-1069 -11 12 0
-1069 -17 18 0
-1069 -23 24 0
-1069 -29 30 0
-1069 -35 36 0
-1069 -131 132 0
-1069 -137 138 0
-1069 -143 144 0
-1074 -5 6 0
-1074 -11 12 0
-1074 -17 18 0
-1074 -23 24 0
-1074 -29 30 0
-1074 -35 36 0
-1074 -131 132 0
-1074 -137 138 0
-1074 -143 144 0
-659 -41 42 0
-659 -47 48 0
-659 -53 54 0
-659 -59 60 0
-659 -65 66 0
-659 -71 72 0
-659 -149 150 0
-659 -155 156 0
-659 -161 162 0
-664 -41 42 0
-664 -47 48 0
-664 -53 54 0
-664 -59 60 0
-664 -65 66 0
-664 -71 72 0
-664 -149 150 0
-664 -155 156 0
-664 -161 162 0
-669 -41 42 0
-669 -47 48 0
-669 -53 54 0
-669 -59 60 0
-669 -65 66 0
-669 -71 72 0
-669 -149 150 0
-669 -155 156 0
-669 -161 162 0
-674 -41 42 0
-674 -47 48 0
-674 -53 54 0
-674 -59 60 0
-674 -65 66 0
-674 -71 72 0
-674 -149 150 0
-674 -155 156 0
-674 -161 162 0
-679 -41 42 0
-679 -47 48 0
-679 -53 54 0
-679 -59 60 0
-679 -65 66 0
-679 -71 72 0
-679 -149 150 0
-679 -155 156 0
-679 -161 162 0
-684 -41 42 0
-684 -47 48 0
-684 -53 54 0
-684 -59 60 0
-684 -65 66 0
-684 -71 72 0
-684 -149 150 0
-684 -155 156 0
-684 -161 162 0
-689 -41 42 0
-689 -47 48 0
-689 -53 54 0
-689 -59 60 0
-689 -65 66 0
-689 -71 72 0
-689 -149 150 0
-689 -155 156 0
-689 -161 162 0
-694 -41 42 0
-694 -47 48 0
-694 -53 54 0
-694 -59 60 0
-694 -65 66 0
-694 -71 72 0
-694 -149 150 0
-694 -155 156 0
-694 -161 162 0
-699 -41 42 0
-699 -47 48 0
-699 -53 54 0
-699 -59 60 0
-699 -65 66 0
-699 -71 72 0
-699 -149 150 0
-699 -155 156 0
-699 -161 162 0
-704 -41 42 0
-704 -47 48 0
-704 -53 54 0
-704 -59 60 0
-704 -65 66 0
-704 -71 72 0
-704 -149 150 0
-704 -155 156 0
-704 -161 162 0
-709 -41 42 0
-709 -47 48 0
-709 -53 54 0
-709 -59 60 0
-709 -65 66 0
-709 -71 72 0
-709 -149 150 0
-709 -155 156 0
-709 -161 162 0
-714 -41 42 0
-714 -47 48 0
-714 -53 54 0
-714 -59 60 0
-714 -65 66 0
-714 -71 72 0
-714 -149 150 0
-714 -155 156 0
-714 -161 162 0
-719 -41 42 0
-719 -47 48 0
-719 -53 54 0
-719 -59 60 0
-719 -65 66 0
-719 -71 72 0
-719 -149 150 0
-719 -155 156 0
-719 -161 162 0
-724 -41 42 0
-724 -47 48 0
-724 -53 54 0
-724 -59 60 0
-724 -65 66 0
-724 -71 72 0
-724 -149 150 0
-724 -155 156 0
-724 -161 162 0
-729 -41 42 0
-729 -47 48 0
-729 -53 54 0
-729 -59 60 0
-729 -65 66 0
-729 -71 72 0
-729 -149 150 0
-729 -155 156 0
-729 -161 162 0
-734 -41 42 0
-734 -47 48 0
-734 -53 54 0
-734 -59 60 0
-734 -65 66 0
-734 -71 72 0
-734 -149 150 0
-734 -155 156 0
-734 -161 162 0
-739 -41 42 0
-739 -47 48 0
-739 -53 54 0
-739 -59 60 0
-739 -65 66 0
-739 -71 72 0
-739 -149 150 0
-739 -155 156 0
-739 -161 162 0
-744 -41 42 0
-744 -47 48 0
-744 -53 54 0
-744 -59 60 0
-744 -65 66 0
-744 -71 72 0
-744 -149 150 0
-744 -155 156 0
-744 -161 162 0
-749 -41 42 0
-749 -47 48 0
-749 -53 54 0
-749 -59 60 0
-749 -65 66 0
-749 -71 72 0
-749 -149 150 0
-749 -155 156 0
-749 -161 162 0
-754 -41 42 0
-754 -47 48 0
-754 -53 54 0
-754 -59 60 0
-754 -65 66 0
-754 -71 72 0
-754 -149 150 0
-754 -155 156 0
-754 -161 162 0
-759 -41 42 0
-759 -47 48 0
-759 -53 54 0
-759 -59 60 0
-759 -65 66 0
-759 -71 72 0
-759 -149 150 0
-759 -155 156 0
-759 -161 162 0
-764 -41 42 0
-764 -47 48 0
-764 -53 54 0
-764 -59 60 0
-764 -65 66 0
-764 -71 72 0
-764 -149 150 0
-764 -155 156 0
-764 -161 162 0
-769 -41 42 0
-769 -47 48 0
-769 -53 54 0
-769 -59 60 0
-769 -65 66 0
-769 -71 72 0
-769 -149 150 0
-769 -155 156 0
-769 -161 162 0
-774 -41 42 0
-774 -47 48 0
-774 -53 54 0
-774 -59 60 0
-774 -65 66 0
-774 -71 72 0
-774 -149 150 0
-774 -155 156 0
-774 -161 162 0
-899 -41 42 0
-899 -47 48 0
-899 -53 54 0
-899 -59 60 0
-899 -65 66 0
-899 -71 72 0
-899 -149 150 0
-899 -155 156 0
-899 -161 162 0
-904 -41 42 0
-904 -47 48 0
-904 -53 54 0
-904 -59 60 0
-904 -65 66 0
-904 -71 72 0
-904 -149 150 0
-904 -155 156 0
-904 -161 162 0
-909 -41 42 0
-909 -47 48 0
-909 -53 54 0
-909 -59 60 0
-909 -65 66 0
-909 -71 72 0
-909 -149 150 0
-909 -155 156 0
-909 -161 162 0
-914 -41 42 0
-914 -47 48 0
-914 -53 54 0
-914 -59 60 0
-914 -65 66 0
-914 -71 72 0
-914 -149 150 0
-914 -155 156 0
-914 -161 162 0
-919 -41 42 0
-919 -47 48 0
-919 -53 54 0
-919 -59 60 0
-919 -65 66 0
-919 -71 72 0
-919 -149 150 0
-919 -155 156 0
-919 -161 162 0
-924 -41 42 0
-924 -47 48 0
-924 -53 54 0
-924 -59 60 0
-924 -65 66 0
-924 -71 72 0
-924 -149 150 0
-924 -155 156 0
-924 -161 162 0
-929 -41 42 0
-929 -47 48 0
-929 -53 54 0
-929 -59 60 0
-929 -65 66 0
-929 -71 72 0
-929 -149 150 0
-929 -155 156 0
-929 -161 162 0
-934 -41 42 0
-934 -47 48 0
-934 -53 54 0
-934 -59 60 0
-934 -65 66 0
-934 -71 72 0
-934 -149 150 0
-934 -155 156 0
-934 -161 162 0
-939 -41 42 0
-939 -47 48 0
-939 -53 54 0
-939 -59 60 0
-939 -65 66 0
-939 -71 72 0
-939 -149 150 0
-939 -155 156 0
-939 -161 162 0
-944 -41 42 0
-944 -47 48 0
-944 -53 54 0
-944 -59 60 0
-944 -65 66 0
-944 -71 72 0
-944 -149 150 0
-944 -155 156 0
-944 -161 162 0
-949 -41 42 0
-949 -47 48 0
-949 -53 54 0
-949 -59 60 0
-949 -65 66 0
-949 -71 72 0
-949 -149 150 0
-949 -155 156 0
-949 -161 162 0
-954 -41 42 0
-954 -47 48 0
-954 -53 54 0
-954 -59 60 0
-954 -65 66 0
-954 -71 72 0
-954 -149 150 0
-954 -155 156 0
-954 -161 162 0
-959 -41 42 0
-959 -47 48 0
-959 -53 54 0
-959 -59 60 0
-959 -65 66 0
-959 -71 72 0
-959 -149 150 0
-959 -155 156 0
-959 -161 162 0
-964 -41 42 0
-964 -47 48 0
-964 -53 54 0
-964 -59 60 0
-964 -65 66 0
-964 -71 72 0
-964 -149 150 0
-964 -155 156 0
-964 -161 162 0
-969 -41 42 0
-969 -47 48 0
-969 -53 54 0
-969 -59 60 0
-969 -65 66 0
-969 -71 72 0
-969 -149 150 0
-969 -155 156 0
-969 -161 162 0
-974 -41 42 0
-974 -47 48 0
-974 -53 54 0
-974 -59 60 0
-974 -65 66 0
-974 -71 72 0
-974 -149 150 0
-974 -155 156 0
-974 -161 162 0
-979 -41 42 0
-979 -47 48 0
-979 -53 54 0
-979 -59 60 0
-979 -65 66 0
-979 -71 72 0
-979 -149 150 0
-979 -155 156 0
-979 -161 162 0
-984 -41 42 0
-984 -47 48 0
-984 -53 54 0
-984 -59 60 0
-984 -65 66 0
-984 -71 72 0
-984 -149 150 0
-984 -155 156 0
-984 -161 162 0
-989 -41 42 0
-989 -47 48 0
-989 -53 54 0
-989 -59 60 0
-989 -65 66 0
-989 -71 72 0
-989 -149 150 0
-989 -155 156 0
-989 -161 162 0
-994 -41 42 0
-994 -47 48 0
-994 -53 54 0
-994 -59 60 0
-994 -65 66 0
-994 -71 72 0
-994 -149 150 0
-994 -155 156 0
-994 -161 162 0
-999 -41 42 0
-999 -47 48 0
-999 -53 54 0
-999 -59 60 0
-999 -65 66 0
-999 -71 72 0
-999 -149 150 0
-999 -155 156 0
-999 -161 162 0
-1004 -41 42 0
-1004 -47 48 0
-1004 -53 54 0
-1004 -59 60 0
-1004 -65 66 0
-1004 -71 72 0
-1004 -149 150 0
-1004 -155 156 0
-1004 -161 162 0
-1009 -41 42 0
-1009 -47 48 0
-1009 -53 54 0
-1009 -59 60 0
-1009 -65 66 0
-1009 -71 72 0
-1009 -149 150 0
-1009 -155 156 0
-1009 -161 162 0
-1014 -41 42 0
-1014 -47 48 0
-1014 -53 54 0
-1014 -59 60 0
-1014 -65 66 0
-1014 -71 72 0
-1014 -149 150 0
-1014 -155 156 0
-1014 -161 162 0
-1019 -41 42 0
-1019 -47 48 0
-1019 -53 54 0
-1019 -59 60 0
-1019 -65 66 0
-1019 -71 72 0
-1019 -149 150 0
-1019 -155 156 0
-1019 -161 162 0
-1024 -41 42 0
-1024 -47 48 0
-1024 -53 54 0
-1024 -59 60 0
-1024 -65 66 0
-1024 -71 72 0
-1024 -149 150 0
-1024 -155 156 0
-1024 -161 162 0
-1029 -41 42 0
-1029 -47 48 0
-1029 -53 54 0
-1029 -59 60 0
-1029 -65 66 0
-1029 -71 72 0
-1029 -149 150 0
-1029 -155 156 0
-1029 -161 162 0
-1034 -41 42 0
-1034 -47 48 0
-1034 -53 54 0
-1034 -59 60 0
-1034 -65 66 0
-1034 -71 72 0
-1034 -149 150 0
-1034 -155 156 0
-1034 -161 162 0
-1039 -41 42 0
-1039 -47 48 0
-1039 -53 54 0
-1039 -59 60 0
-1039 -65 66 0
-1039 -71 72 0
-1039 -149 150 0
-1039 -155 156 0
-1039 -161 162 0
-1044 -41 42 0
-1044 -47 48 0
-1044 -53 54 0
-1044 -59 60 0
-1044 -65 66 0
-1044 -71 72 0
-1044 -149 150 0
-1044 -155 156 0
-1044 -161 162 0
-1049 -41 42 0
-1049 -47 48 0
-1049 -53 54 0
-1049 -59 60 0
-1049 -65 66 0
-1049 -71 72 0
-1049 -149 150 0
-1049 -155 156 0
-1049 -161 162 0
-1054 -41 42 0
-1054 -47 48 0
-1054 -53 54 0
-1054 -59 60 0
-1054 -65 66 0
-1054 -71 72 0
-1054 -149 150 0
-1054 -155 156 0
-1054 -161 162 0
-1059 -41 42 0
-1059 -47 48 0
-1059 -53 54 0
-1059 -59 60 0
-1059 -65 66 0
-1059 -71 72 0
-1059 -149 150 0
-1059 -155 156 0
-1059 -161 162 0
-1064 -41 42 0
-1064 -47 48 0
-1064 -53 54 0
-1064 -59 60 0
-1064 -65 66 0
-1064 -71 72 0
-1064 -149 150 0
-1064 -155 156 0
-1064 -161 162 0
-1069 -41 42 0
-1069 -47 48 0
-1069 -53 54 0
-1069 -59 60 0
-1069 -65 66 0
-1069 -71 72 0
-1069 -149 150 0
-1069 -155 156 0
-1069 -161 162 0
-1074 -41 42 0
-1074 -47 48 0
-1074 -53 54 0
-1074 -59 60 0
-1074 -65 66 0
-1074 -71 72 0
-1074 -149 150 0
-1074 -155 156 0
-1074 -161 162 0
-659 -77 78 0
-659 -83 84 0
-659 -89 90 0
-659 -95 96 0
-659 -101 102 0
-659 -167 168 0
-659 -173 174 0
-659 -179 180 0
-664 -77 78 0
-664 -83 84 0
-664 -89 90 0
-664 -95 96 0
-664 -101 102 0
-664 -167 168 0
-664 -173 174 0
-664 -179 180 0
-669 -77 78 0
-669 -83 84 0
-669 -89 90 0
-669 -95 96 0
-669 -101 102 0
-669 -167 168 0
-669 -173 174 0
-669 -179 180 0
-674 -77 78 0
-674 -83 84 0
-674 -89 90 0
-674 -95 96 0
-674 -101 102 0
-674 -167 168 0
-674 -173 174 0
-674 -179 180 0
-679 -77 78 0
-679 -83 84 0
-679 -89 90 0
-679 -95 96 0
-679 -101 102 0
-679 -167 168 0
-679 -173 174 0
-679 -179 180 0
-684 -77 78 0
-684 -83 84 0
-684 -89 90 0
-684 -95 96 0
-684 -101 102 0
-684 -167 168 0
-684 -173 174 0
-684 -179 180 0
-689 -77 78 0
-689 -83 84 0
-689 -89 90 0
-689 -95 96 0
-689 -101 102 0
-689 -167 168 0
-689 -173 174 0
-689 -179 180 0
-694 -77 78 0
-694 -83 84 0
-694 -89 90 0
-694 -95 96 0
-694 -101 102 0
-694 -167 168 0
-694 -173 174 0
-694 -179 180 0
-699 -77 78 0
-699 -83 84 0
-699 -89 90 0
-699 -95 96 0
-699 -101 102 0
-699 -167 168 0
-699 -173 174 0
-699 -179 180 0
-704 -77 78 0
-704 -83 84 0
-704 -89 90 0
-704 -95 96 0
-704 -101 102 0
-704 -167 168 0
-704 -173 174 0
-704 -179 180 0
-709 -77 78 0
-709 -83 84 0
-709 -89 90 0
-709 -95 96 0
-709 -101 102 0
-709 -167 168 0
-709 -173 174 0
-709 -179 180 0
-714 -77 78 0
-714 -83 84 0
-714 -89 90 0
-714 -95 96 0
-714 -101 102 0
-714 -167 168 0
-714 -173 174 0
-714 -179 180 0
-719 -77 78 0
-719 -83 84 0
-719 -89 90 0
-719 -95 96 0
-719 -101 102 0
-719 -167 168 0
-719 -173 174 0
-719 -179 180 0
-724 -77 78 0
-724 -83 84 0
-724 -89 90 0
-724 -95 96 0
-724 -101 102 0
-724 -167 168 0
-724 -173 174 0
-724 -179 180 0
-729 -77 78 0
-729 -83 84 0
-729 -89 90 0
-729 -95 96 0
-729 -101 102 0
-729 -167 168 0
-729 -173 174 0
-729 -179 180 0
-734 -77 78 0
-734 -83 84 0
-734 -89 90 0
-734 -95 96 0
-734 -101 102 0
-734 -167 168 0
-734 -173 174 0
-734 -179 180 0
-739 -77 78 0
-739 -83 84 0
-739 -89 90 0
-739 -95 96 0
-739 -101 102 0
-739 -167 168 0
-739 -173 174 0
-739 -179 180 0
-744 -77 78 0
-744 -83 84 0
-744 -89 90 0
-744 -95 96 0
-744 -101 102 0
-744 -167 168 0
-744 -173 174 0
-744 -179 180 0
-749 -77 78 0
-749 -83 84 0
-749 -89 90 0
-749 -95 96 0
-749 -101 102 0
-749 -167 168 0
-749 -173 174 0
-749 -179 180 0
-754 -77 78 0
-754 -83 84 0
-754 -89 90 0
-754 -95 96 0
-754 -101 102 0
-754 -167 168 0
-754 -173 174 0
-754 -179 180 0
-759 -77 78 0
-759 -83 84 0
-759 -89 90 0
-759 -95 96 0
-759 -101 102 0
-759 -167 168 0
-759 -173 174 0
-759 -179 180 0
-764 -77 78 0
-764 -83 84 0
-764 -89 90 0
-764 -95 96 0
-764 -101 102 0
-764 -167 168 0
-764 -173 174 0
-764 -179 180 0
-769 -77 78 0
-769 -83 84 0
-769 -89 90 0
-769 -95 96 0
-769 -101 102 0
-769 -167 168 0
-769 -173 174 0
-769 -179 180 0
-774 -77 78 0
-774 -83 84 0
-774 -89 90 0
-774 -95 96 0
-774 -101 102 0
-774 -167 168 0
-774 -173 174 0
-774 -179 180 0
-779 -77 78 0
-779 -83 84 0
-779 -89 90 0
-779 -95 96 0
-779 -101 102 0
-779 -167 168 0
-779 -173 174 0
-779 -179 180 0
-784 -77 78 0
-784 -83 84 0
-784 -89 90 0
-784 -95 96 0
-784 -101 102 0
-784 -167 168 0
-784 -173 174 0
-784 -179 180 0
-789 -77 78 0
-789 -83 84 0
-789 -89 90 0
-789 -95 96 0
-789 -101 102 0
-789 -167 168 0
-789 -173 174 0
-789 -179 180 0
-794 -77 78 0
-794 -83 84 0
-794 -89 90 0
-794 -95 96 0
-794 -101 102 0
-794 -167 168 0
-794 -173 174 0
-794 -179 180 0
-799 -77 78 0
-799 -83 84 0
-799 -89 90 0
-799 -95 96 0
-799 -101 102 0
-799 -167 168 0
-799 -173 174 0
-799 -179 180 0
-804 -77 78 0
-804 -83 84 0
-804 -89 90 0
-804 -95 96 0
-804 -101 102 0
-804 -167 168 0
-804 -173 174 0
-804 -179 180 0
-809 -77 78 0
-809 -83 84 0
-809 -89 90 0
-809 -95 96 0
-809 -101 102 0
-809 -167 168 0
-809 -173 174 0
-809 -179 180 0
-814 -77 78 0
-814 -83 84 0
-814 -89 90 0
-814 -95 96 0
-814 -101 102 0
-814 -167 168 0
-814 -173 174 0
-814 -179 180 0
-819 -77 78 0
-819 -83 84 0
-819 -89 90 0
-819 -95 96 0
-819 -101 102 0
-819 -167 168 0
-819 -173 174 0
-819 -179 180 0
-824 -77 78 0
-824 -83 84 0
-824 -89 90 0
-824 -95 96 0
-824 -101 102 0
-824 -167 168 0
-824 -173 174 0
-824 -179 180 0
-829 -77 78 0
-829 -83 84 0
-829 -89 90 0
-829 -95 96 0
-829 -101 102 0
-829 -167 168 0
-829 -173 174 0
-829 -179 180 0
-834 -77 78 0
-834 -83 84 0
-834 -89 90 0
-834 -95 96 0
-834 -101 102 0
-834 -167 168 0
-834 -173 174 0
-834 -179 180 0
-839 -77 78 0
-839 -83 84 0
-839 -89 90 0
-839 -95 96 0
-839 -101 102 0
-839 -167 168 0
-839 -173 174 0
-839 -179 180 0
-844 -77 78 0
-844 -83 84 0
-844 -89 90 0
-844 -95 96 0
-844 -101 102 0
-844 -167 168 0
-844 -173 174 0
-844 -179 180 0
-849 -77 78 0
-849 -83 84 0
-849 -89 90 0
-849 -95 96 0
-849 -101 102 0
-849 -167 168 0
-849 -173 174 0
-849 -179 180 0
-854 -77 78 0
-854 -83 84 0
-854 -89 90 0
-854 -95 96 0
-854 -101 102 0
-854 -167 168 0
-854 -173 174 0
-854 -179 180 0
-859 -77 78 0
-859 -83 84 0
-859 -89 90 0
-859 -95 96 0
-859 -101 102 0
-859 -167 168 0
-859 -173 174 0
-859 -179 180 0
-864 -77 78 0
-864 -83 84 0
-864 -89 90 0
-864 -95 96 0
-864 -101 102 0
-864 -167 168 0
-864 -173 174 0
-864 -179 180 0
-869 -77 78 0
-869 -83 84 0
-869 -89 90 0
-869 -95 96 0
-869 -101 102 0
-869 -167 168 0
-869 -173 174 0
-869 -179 180 0
-874 -77 78 0
-874 -83 84 0
-874 -89 90 0
-874 -95 96 0
-874 -101 102 0
-874 -167 168 0
-874 -173 174 0
-874 -179 180 0
-879 -77 78 0
-879 -83 84 0
-879 -89 90 0
-879 -95 96 0
-879 -101 102 0
-879 -167 168 0
-879 -173 174 0
-879 -179 180 0
-884 -77 78 0
-884 -83 84 0
-884 -89 90 0
-884 -95 96 0
-884 -101 102 0
-884 -167 168 0
-884 -173 174 0
-884 -179 180 0
-889 -77 78 0
-889 -83 84 0
-889 -89 90 0
-889 -95 96 0
-889 -101 102 0
-889 -167 168 0
-889 -173 174 0
-889 -179 180 0
-894 -77 78 0
-894 -83 84 0
-894 -89 90 0
-894 -95 96 0
-894 -101 102 0
-894 -167 168 0
-894 -173 174 0
-894 -179 180 0
-999 -77 78 0
-999 -83 84 0
-999 -89 90 0
-999 -95 96 0
-999 -101 102 0
-999 -167 168 0
-999 -173 174 0
-999 -179 180 0
-1004 -77 78 0
-1004 -83 84 0
-1004 -89 90 0
-1004 -95 96 0
-1004 -101 102 0
-1004 -167 168 0
-1004 -173 174 0
-1004 -179 180 0
-1009 -77 78 0
-1009 -83 84 0
-1009 -89 90 0
-1009 -95 96 0
-1009 -101 102 0
-1009 -167 168 0
-1009 -173 174 0
-1009 -179 180 0
-1014 -77 78 0
-1014 -83 84 0
-1014 -89 90 0
-1014 -95 96 0
-1014 -101 102 0
-1014 -167 168 0
-1014 -173 174 0
-1014 -179 180 0
-1019 -77 78 0
-1019 -83 84 0
-1019 -89 90 0
-1019 -95 96 0
-1019 -101 102 0
-1019 -167 168 0
-1019 -173 174 0
-1019 -179 180 0
-1024 -77 78 0
-1024 -83 84 0
-1024 -89 90 0
-1024 -95 96 0
-1024 -101 102 0
-1024 -167 168 0
-1024 -173 174 0
-1024 -179 180 0
-1029 -77 78 0
-1029 -83 84 0
-1029 -89 90 0
-1029 -95 96 0
-1029 -101 102 0
-1029 -167 168 0
-1029 -173 174 0
-1029 -179 180 0
-1034 -77 78 0
-1034 -83 84 0
-1034 -89 90 0
-1034 -95 96 0
-1034 -101 102 0
-1034 -167 168 0
-1034 -173 174 0
-1034 -179 180 0
-1039 -77 78 0
-1039 -83 84 0
-1039 -89 90 0
-1039 -95 96 0
-1039 -101 102 0
-1039 -167 168 0
-1039 -173 174 0
-1039 -179 180 0
-1044 -77 78 0
-1044 -83 84 0
-1044 -89 90 0
-1044 -95 96 0
-1044 -101 102 0
-1044 -167 168 0
-1044 -173 174 0
-1044 -179 180 0
-1049 -77 78 0
-1049 -83 84 0
-1049 -89 90 0
-1049 -95 96 0
-1049 -101 102 0
-1049 -167 168 0
-1049 -173 174 0
-1049 -179 180 0
-1054 -77 78 0
-1054 -83 84 0
-1054 -89 90 0
-1054 -95 96 0
-1054 -101 102 0
-1054 -167 168 0
-1054 -173 174 0
-1054 -179 180 0
-1059 -77 78 0
-1059 -83 84 0
-1059 -89 90 0
-1059 -95 96 0
-1059 -101 102 0
-1059 -167 168 0
-1059 -173 174 0
-1059 -179 180 0
-1064 -77 78 0
-1064 -83 84 0
-1064 -89 90 0
-1064 -95 96 0
-1064 -101 102 0
-1064 -167 168 0
-1064 -173 174 0
-1064 -179 180 0
-1069 -77 78 0
-1069 -83 84 0
-1069 -89 90 0
-1069 -95 96 0
-1069 -101 102 0
-1069 -167 168 0
-1069 -173 174 0
-1069 -179 180 0
-1074 -77 78 0
-1074 -83 84 0
-1074 -89 90 0
-1074 -95 96 0
-1074 -101 102 0
-1074 -167 168 0
-1074 -173 174 0
-1074 -179 180 0
-659 -107 108 0
-659 -113 114 0
-659 -119 120 0
-659 -125 126 0
-659 -185 186 0
-659 -191 192 0
-659 -197 198 0
-664 -107 108 0
-664 -113 114 0
-664 -119 120 0
-664 -125 126 0
-664 -185 186 0
-664 -191 192 0
-664 -197 198 0
-669 -107 108 0
-669 -113 114 0
-669 -119 120 0
-669 -125 126 0
-669 -185 186 0
-669 -191 192 0
-669 -197 198 0
-674 -107 108 0
-674 -113 114 0
-674 -119 120 0
-674 -125 126 0
-674 -185 186 0
-674 -191 192 0
-674 -197 198 0
-679 -107 108 0
-679 -113 114 0
-679 -119 120 0
-679 -125 126 0
-679 -185 186 0
-679 -191 192 0
-679 -197 198 0
-684 -107 108 0
-684 -113 114 0
-684 -119 120 0
-684 -125 126 0
-684 -185 186 0
-684 -191 192 0
-684 -197 198 0
-689 -107 108 0
-689 -113 114 0
-689 -119 120 0
-689 -125 126 0
-689 -185 186 0
-689 -191 192 0
-689 -197 198 0
-694 -107 108 0
-694 -113 114 0
-694 -119 120 0
-694 -125 126 0
-694 -185 186 0
-694 -191 192 0
-694 -197 198 0
-699 -107 108 0
-699 -113 114 0
-699 -119 120 0
-699 -125 126 0
-699 -185 186 0
-699 -191 192 0
-699 -197 198 0
-704 -107 108 0
-704 -113 114 0
-704 -119 120 0
-704 -125 126 0
-704 -185 186 0
-704 -191 192 0
-704 -197 198 0
-709 -107 108 0
-709 -113 114 0
-709 -119 120 0
-709 -125 126 0
-709 -185 186 0
-709 -191 192 0
-709 -197 198 0
-714 -107 108 0
-714 -113 114 0
-714 -119 120 0
-714 -125 126 0
-714 -185 186 0
-714 -191 192 0
-714 -197 198 0
-719 -107 108 0
-719 -113 114 0
-719 -119 120 0
-719 -125 126 0
-719 -185 186 0
-719 -191 192 0
-719 -197 198 0
-724 -107 108 0
-724 -113 114 0
-724 -119 120 0
-724 -125 126 0
-724 -185 186 0
-724 -191 192 0
-724 -197 198 0
-729 -107 108 0
-729 -113 114 0
-729 -119 120 0
-729 -125 126 0
-729 -185 186 0
-729 -191 192 0
-729 -197 198 0
-734 -107 108 0
-734 -113 114 0
-734 -119 120 0
-734 -125 126 0
-734 -185 186 0
-734 -191 192 0
-734 -197 198 0
-739 -107 108 0
-739 -113 114 0
-739 -119 120 0
-739 -125 126 0
-739 -185 186 0
-739 -191 192 0
-739 -197 198 0
-744 -107 108 0
-744 -113 114 0
-744 -119 120 0
-744 -125 126 0
-744 -185 186 0
-744 -191 192 0
-744 -197 198 0
-749 -107 108 0
-749 -113 114 0
-749 -119 120 0
-749 -125 126 0
-749 -185 186 0
-749 -191 192 0
-749 -197 198 0
-754 -107 108 0
-754 -113 114 0
-754 -119 120 0
-754 -125 126 0
-754 -185 186 0
-754 -191 192 0
-754 -197 198 0
-759 -107 108 0
-759 -113 114 0
-759 -119 120 0
-759 -125 126 0
-759 -185 186 0
-759 -191 192 0
-759 -197 198 0
-764 -107 108 0
-764 -113 114 0
-764 -119 120 0
-764 -125 126 0
-764 -185 186 0
-764 -191 192 0
-764 -197 198 0
-769 -107 108 0
-769 -113 114 0
-769 -119 120 0
-769 -125 126 0
-769 -185 186 0
-769 -191 192 0
-769 -197 198 0
-774 -107 108 0
-774 -113 114 0
-774 -119 120 0
-774 -125 126 0
-774 -185 186 0
-774 -191 192 0
-774 -197 198 0
-779 -107 108 0
-779 -113 114 0
-779 -119 120 0
-779 -125 126 0
-779 -185 186 0
-779 -191 192 0
-779 -197 198 0
-784 -107 108 0
-784 -113 114 0
-784 -119 120 0
-784 -125 126 0
-784 -185 186 0
-784 -191 192 0
-784 -197 198 0
-789 -107 108 0
-789 -113 114 0
-789 -119 120 0
-789 -125 126 0
-789 -185 186 0
-789 -191 192 0
-789 -197 198 0
-794 -107 108 0
-794 -113 114 0
-794 -119 120 0
-794 -125 126 0
-794 -185 186 0
-794 -191 192 0
-794 -197 198 0
-799 -107 108 0
-799 -113 114 0
-799 -119 120 0
-799 -125 126 0
-799 -185 186 0
-799 -191 192 0
-799 -197 198 0
-804 -107 108 0
-804 -113 114 0
-804 -119 120 0
-804 -125 126 0
-804 -185 186 0
-804 -191 192 0
-804 -197 198 0
-809 -107 108 0
-809 -113 114 0
-809 -119 120 0
-809 -125 126 0
-809 -185 186 0
-809 -191 192 0
-809 -197 198 0
-814 -107 108 0
-814 -113 114 0
-814 -119 120 0
-814 -125 126 0
-814 -185 186 0
-814 -191 192 0
-814 -197 198 0
-819 -107 108 0
-819 -113 114 0
-819 -119 120 0
-819 -125 126 0
-819 -185 186 0
-819 -191 192 0
-819 -197 198 0
-824 -107 108 0
-824 -113 114 0
-824 -119 120 0
-824 -125 126 0
-824 -185 186 0
-824 -191 192 0
-824 -197 198 0
-829 -107 108 0
-829 -113 114 0
-829 -119 120 0
-829 -125 126 0
-829 -185 186 0
-829 -191 192 0
-829 -197 198 0
-834 -107 108 0
-834 -113 114 0
-834 -119 120 0
-834 -125 126 0
-834 -185 186 0
-834 -191 192 0
-834 -197 198 0
-839 -107 108 0
-839 -113 114 0
-839 -119 120 0
-839 -125 126 0
-839 -185 186 0
-839 -191 192 0
-839 -197 198 0
-844 -107 108 0
-844 -113 114 0
-844 -119 120 0
-844 -125 126 0
-844 -185 186 0
-844 -191 192 0
-844 -197 198 0
-849 -107 108 0
-849 -113 114 0
-849 -119 120 0
-849 -125 126 0
-849 -185 186 0
-849 -191 192 0
-849 -197 198 0
-854 -107 108 0
-854 -113 114 0
-854 -119 120 0
-854 -125 126 0
-854 -185 186 0
-854 -191 192 0
-854 -197 198 0
-859 -107 108 0
-859 -113 114 0
-859 -119 120 0
-859 -125 126 0
-859 -185 186 0
-859 -191 192 0
-859 -197 198 0
-864 -107 108 0
-864 -113 114 0
-864 -119 120 0
-864 -125 126 0
-864 -185 186 0
-864 -191 192 0
-864 -197 198 0
-869 -107 108 0
-869 -113 114 0
-869 -119 120 0
-869 -125 126 0
-869 -185 186 0
-869 -191 192 0
-869 -197 198 0
-874 -107 108 0
-874 -113 114 0
-874 -119 120 0
-874 -125 126 0
-874 -185 186 0
-874 -191 192 0
-874 -197 198 0
-879 -107 108 0
-879 -113 114 0
-879 -119 120 0
-879 -125 126 0
-879 -185 186 0
-879 -191 192 0
-879 -197 198 0
-884 -107 108 0
-884 -113 114 0
-884 -119 120 0
-884 -125 126 0
-884 -185 186 0
-884 -191 192 0
-884 -197 198 0
-889 -107 108 0
-889 -113 114 0
-889 -119 120 0
-889 -125 126 0
-889 -185 186 0
-889 -191 192 0
-889 -197 198 0
-894 -107 108 0
-894 -113 114 0
-894 -119 120 0
-894 -125 126 0
-894 -185 186 0
-894 -191 192 0
-894 -197 198 0
-899 -107 108 0
-899 -113 114 0
-899 -119 120 0
-899 -125 126 0
-899 -185 186 0
-899 -191 192 0
-899 -197 198 0
-904 -107 108 0
-904 -113 114 0
-904 -119 120 0
-904 -125 126 0
-904 -185 186 0
-904 -191 192 0
-904 -197 198 0
-909 -107 108 0
-909 -113 114 0
-909 -119 120 0
-909 -125 126 0
-909 -185 186 0
-909 -191 192 0
-909 -197 198 0
-914 -107 108 0
-914 -113 114 0
-914 -119 120 0
-914 -125 126 0
-914 -185 186 0
-914 -191 192 0
-914 -197 198 0
-919 -107 108 0
-919 -113 114 0
-919 -119 120 0
-919 -125 126 0
-919 -185 186 0
-919 -191 192 0
-919 -197 198 0
-924 -107 108 0
-924 -113 114 0
-924 -119 120 0
-924 -125 126 0
-924 -185 186 0
-924 -191 192 0
-924 -197 198 0
-929 -107 108 0
-929 -113 114 0
-929 -119 120 0
-929 -125 126 0
-929 -185 186 0
-929 -191 192 0
-929 -197 198 0
-934 -107 108 0
-934 -113 114 0
-934 -119 120 0
-934 -125 126 0
-934 -185 186 0
-934 -191 192 0
-934 -197 198 0
-939 -107 108 0
-939 -113 114 0
-939 -119 120 0
-939 -125 126 0
-939 -185 186 0
-939 -191 192 0
-939 -197 198 0
-944 -107 108 0
-944 -113 114 0
-944 -119 120 0
-944 -125 126 0
-944 -185 186 0
-944 -191 192 0
-944 -197 198 0
-949 -107 108 0
-949 -113 114 0
-949 -119 120 0
-949 -125 126 0
-949 -185 186 0
-949 -191 192 0
-949 -197 198 0
-954 -107 108 0
-954 -113 114 0
-954 -119 120 0
-954 -125 126 0
-954 -185 186 0
-954 -191 192 0
-954 -197 198 0
-959 -107 108 0
-959 -113 114 0
-959 -119 120 0
-959 -125 126 0
-959 -185 186 0
-959 -191 192 0
-959 -197 198 0
-964 -107 108 0
-964 -113 114 0
-964 -119 120 0
-964 -125 126 0
-964 -185 186 0
-964 -191 192 0
-964 -197 198 0
-969 -107 108 0
-969 -113 114 0
-969 -119 120 0
-969 -125 126 0
-969 -185 186 0
-969 -191 192 0
-969 -197 198 0
-974 -107 108 0
-974 -113 114 0
-974 -119 120 0
-974 -125 126 0
-974 -185 186 0
-974 -191 192 0
-974 -197 198 0
-979 -107 108 0
-979 -113 114 0
-979 -119 120 0
-979 -125 126 0
-979 -185 186 0
-979 -191 192 0
-979 -197 198 0
-984 -107 108 0
-984 -113 114 0
-984 -119 120 0
-984 -125 126 0
-984 -185 186 0
-984 -191 192 0
-984 -197 198 0
-989 -107 108 0
-989 -113 114 0
-989 -119 120 0
-989 -125 126 0
-989 -185 186 0
-989 -191 192 0
-989 -197 198 0
-994 -107 108 0
-994 -113 114 0
-994 -119 120 0
-994 -125 126 0
-994 -185 186 0
-994 -191 192 0
-994 -197 198 0
