p cnf 495 17648
1 4 7 10 13 16 0
-1 -4 0
-1 -7 0
-1 -10 0
-1 -13 0
-1 -16 0
-4 -7 0
-4 -10 0
-4 -13 0
-4 -16 0
-7 -10 0
-7 -13 0
-7 -16 0
-10 -13 0
-10 -16 0
-13 -16 0
64 67 70 0
-64 -67 0
-64 -70 0
-67 -70 0
19 22 25 28 31 34 0
-19 -22 0
-19 -25 0
-19 -28 0
-19 -31 0
-19 -34 0
-22 -25 0
-22 -28 0
-22 -31 0
-22 -34 0
-25 -28 0
-25 -31 0
-25 -34 0
-28 -31 0
-28 -34 0
-31 -34 0
73 76 79 0
-73 -76 0
-73 -79 0
-76 -79 0
37 40 43 46 49 0
-37 -40 0
-37 -43 0
-37 -46 0
-37 -49 0
-40 -43 0
-40 -46 0
-40 -49 0
-43 -46 0
-43 -49 0
-46 -49 0
82 85 88 0
-82 -85 0
-82 -88 0
-85 -88 0
52 55 58 61 0
-52 -55 0
-52 -58 0
-52 -61 0
-55 -58 0
-55 -61 0
-58 -61 0
91 94 97 0
-91 -94 0
-91 -97 0
-94 -97 0
2 5 8 11 14 17 0
-2 -5 0
-2 -8 0
-2 -11 0
-2 -14 0
-2 -17 0
-5 -8 0
-5 -11 0
-5 -14 0
-5 -17 0
-8 -11 0
-8 -14 0
-8 -17 0
-11 -14 0
-11 -17 0
-14 -17 0
65 68 71 0
-65 -68 0
-65 -71 0
-68 -71 0
20 23 26 29 32 35 0
-20 -23 0
-20 -26 0
-20 -29 0
-20 -32 0
-20 -35 0
-23 -26 0
-23 -29 0
-23 -32 0
-23 -35 0
-26 -29 0
-26 -32 0
-26 -35 0
-29 -32 0
-29 -35 0
-32 -35 0
74 77 80 0
-74 -77 0
-74 -80 0
-77 -80 0
38 41 44 47 50 0
-38 -41 0
-38 -44 0
-38 -47 0
-38 -50 0
-41 -44 0
-41 -47 0
-41 -50 0
-44 -47 0
-44 -50 0
-47 -50 0
83 86 89 0
-83 -86 0
-83 -89 0
-86 -89 0
53 56 59 62 0
-53 -56 0
-53 -59 0
-53 -62 0
-56 -59 0
-56 -62 0
-59 -62 0
92 95 98 0
-92 -95 0
-92 -98 0
-95 -98 0
3 6 9 12 15 18 0
-3 -6 0
-3 -9 0
-3 -12 0
-3 -15 0
-3 -18 0
-6 -9 0
-6 -12 0
-6 -15 0
-6 -18 0
-9 -12 0
-9 -15 0
-9 -18 0
-12 -15 0
-12 -18 0
-15 -18 0
66 69 72 0
-66 -69 0
-66 -72 0
-69 -72 0
21 24 27 30 33 36 0
-21 -24 0
-21 -27 0
-21 -30 0
-21 -33 0
-21 -36 0
-24 -27 0
-24 -30 0
-24 -33 0
-24 -36 0
-27 -30 0
-27 -33 0
-27 -36 0
-30 -33 0
-30 -36 0
-33 -36 0
75 78 81 0
-75 -78 0
-75 -81 0
-78 -81 0
39 42 45 48 51 0
-39 -42 0
-39 -45 0
-39 -48 0
-39 -51 0
-42 -45 0
-42 -48 0
-42 -51 0
-45 -48 0
-45 -51 0
-48 -51 0
84 87 90 0
-84 -87 0
-84 -90 0
-87 -90 0
54 57 60 63 0
-54 -57 0
-54 -60 0
-54 -63 0
-57 -60 0
-57 -63 0
-60 -63 0
93 96 99 0
-93 -96 0
-93 -99 0
-96 -99 0
-112 64 0
-112 1 0
-1 -64 112 0
-121 64 0
-121 4 0
-4 -64 121 0
-130 64 0
-130 7 0
-7 -64 130 0
-139 64 0
-139 10 0
-10 -64 139 0
-148 64 0
-148 13 0
-13 -64 148 0
-157 64 0
-157 16 0
-16 -64 157 0
-115 67 0
-115 1 0
-1 -67 115 0
-124 67 0
-124 4 0
-4 -67 124 0
-133 67 0
-133 7 0
-7 -67 133 0
-142 67 0
-142 10 0
-10 -67 142 0
-151 67 0
-151 13 0
-13 -67 151 0
-160 67 0
-160 16 0
-16 -67 160 0
-118 70 0
-118 1 0
-1 -70 118 0
-127 70 0
-127 4 0
-4 -70 127 0
-136 70 0
-136 7 0
-7 -70 136 0
-145 70 0
-145 10 0
-10 -70 145 0
-154 70 0
-154 13 0
-13 -70 154 0
-163 70 0
-163 16 0
-16 -70 163 0
-166 73 0
-166 19 0
-19 -73 166 0
-175 73 0
-175 22 0
-22 -73 175 0
-184 73 0
-184 25 0
-25 -73 184 0
-193 73 0
-193 28 0
-28 -73 193 0
-202 73 0
-202 31 0
-31 -73 202 0
-211 73 0
-211 34 0
-34 -73 211 0
-169 76 0
-169 19 0
-19 -76 169 0
-178 76 0
-178 22 0
-22 -76 178 0
-187 76 0
-187 25 0
-25 -76 187 0
-196 76 0
-196 28 0
-28 -76 196 0
-205 76 0
-205 31 0
-31 -76 205 0
-214 76 0
-214 34 0
-34 -76 214 0
-172 79 0
-172 19 0
-19 -79 172 0
-181 79 0
-181 22 0
-22 -79 181 0
-190 79 0
-190 25 0
-25 -79 190 0
-199 79 0
-199 28 0
-28 -79 199 0
-208 79 0
-208 31 0
-31 -79 208 0
-217 79 0
-217 34 0
-34 -79 217 0
-220 82 0
-220 37 0
-37 -82 220 0
-229 82 0
-229 37 40 0
-37 -82 229 0
-40 -82 229 0
-238 82 0
-238 40 43 0
-40 -82 238 0
-43 -82 238 0
-247 82 0
-247 43 46 0
-43 -82 247 0
-46 -82 247 0
-256 82 0
-256 46 49 0
-46 -82 256 0
-49 -82 256 0
-265 82 0
-265 49 0
-49 -82 265 0
-223 85 0
-223 37 0
-37 -85 223 0
-232 85 0
-232 37 40 0
-37 -85 232 0
-40 -85 232 0
-241 85 0
-241 40 43 0
-40 -85 241 0
-43 -85 241 0
-250 85 0
-250 43 46 0
-43 -85 250 0
-46 -85 250 0
-259 85 0
-259 46 49 0
-46 -85 259 0
-49 -85 259 0
-268 85 0
-268 49 0
-49 -85 268 0
-226 88 0
-226 37 0
-37 -88 226 0
-235 88 0
-235 37 40 0
-37 -88 235 0
-40 -88 235 0
-244 88 0
-244 40 43 0
-40 -88 244 0
-43 -88 244 0
-253 88 0
-253 43 46 0
-43 -88 253 0
-46 -88 253 0
-262 88 0
-262 46 49 0
-46 -88 262 0
-49 -88 262 0
-271 88 0
-271 49 0
-49 -88 271 0
-274 91 0
-274 52 0
-52 -91 274 0
-283 91 0
-283 52 55 0
-52 -91 283 0
-55 -91 283 0
-292 91 0
-292 52 55 58 0
-52 -91 292 0
-55 -91 292 0
-58 -91 292 0
-301 91 0
-301 55 58 61 0
-55 -91 301 0
-58 -91 301 0
-61 -91 301 0
-310 91 0
-310 58 61 0
-58 -91 310 0
-61 -91 310 0
-319 91 0
-319 61 0
-61 -91 319 0
-277 94 0
-277 52 0
-52 -94 277 0
-286 94 0
-286 52 55 0
-52 -94 286 0
-55 -94 286 0
-295 94 0
-295 52 55 58 0
-52 -94 295 0
-55 -94 295 0
-58 -94 295 0
-304 94 0
-304 55 58 61 0
-55 -94 304 0
-58 -94 304 0
-61 -94 304 0
-313 94 0
-313 58 61 0
-58 -94 313 0
-61 -94 313 0
-322 94 0
-322 61 0
-61 -94 322 0
-280 97 0
-280 52 0
-52 -97 280 0
-289 97 0
-289 52 55 0
-52 -97 289 0
-55 -97 289 0
-298 97 0
-298 52 55 58 0
-52 -97 298 0
-55 -97 298 0
-58 -97 298 0
-307 97 0
-307 55 58 61 0
-55 -97 307 0
-58 -97 307 0
-61 -97 307 0
-316 97 0
-316 58 61 0
-58 -97 316 0
-61 -97 316 0
-325 97 0
-325 61 0
-61 -97 325 0
-113 65 0
-113 2 0
-2 -65 113 0
-122 65 0
-122 5 0
-5 -65 122 0
-131 65 0
-131 8 0
-8 -65 131 0
-140 65 0
-140 11 0
-11 -65 140 0
-149 65 0
-149 14 0
-14 -65 149 0
-158 65 0
-158 17 0
-17 -65 158 0
-116 68 0
-116 2 0
-2 -68 116 0
-125 68 0
-125 5 0
-5 -68 125 0
-134 68 0
-134 8 0
-8 -68 134 0
-143 68 0
-143 11 0
-11 -68 143 0
-152 68 0
-152 14 0
-14 -68 152 0
-161 68 0
-161 17 0
-17 -68 161 0
-119 71 0
-119 2 0
-2 -71 119 0
-128 71 0
-128 5 0
-5 -71 128 0
-137 71 0
-137 8 0
-8 -71 137 0
-146 71 0
-146 11 0
-11 -71 146 0
-155 71 0
-155 14 0
-14 -71 155 0
-164 71 0
-164 17 0
-17 -71 164 0
-167 74 0
-167 20 0
-20 -74 167 0
-176 74 0
-176 23 0
-23 -74 176 0
-185 74 0
-185 26 0
-26 -74 185 0
-194 74 0
-194 29 0
-29 -74 194 0
-203 74 0
-203 32 0
-32 -74 203 0
-212 74 0
-212 35 0
-35 -74 212 0
-170 77 0
-170 20 0
-20 -77 170 0
-179 77 0
-179 23 0
-23 -77 179 0
-188 77 0
-188 26 0
-26 -77 188 0
-197 77 0
-197 29 0
-29 -77 197 0
-206 77 0
-206 32 0
-32 -77 206 0
-215 77 0
-215 35 0
-35 -77 215 0
-173 80 0
-173 20 0
-20 -80 173 0
-182 80 0
-182 23 0
-23 -80 182 0
-191 80 0
-191 26 0
-26 -80 191 0
-200 80 0
-200 29 0
-29 -80 200 0
-209 80 0
-209 32 0
-32 -80 209 0
-218 80 0
-218 35 0
-35 -80 218 0
-221 83 0
-221 38 0
-38 -83 221 0
-230 83 0
-230 38 41 0
-38 -83 230 0
-41 -83 230 0
-239 83 0
-239 41 44 0
-41 -83 239 0
-44 -83 239 0
-248 83 0
-248 44 47 0
-44 -83 248 0
-47 -83 248 0
-257 83 0
-257 47 50 0
-47 -83 257 0
-50 -83 257 0
-266 83 0
-266 50 0
-50 -83 266 0
-224 86 0
-224 38 0
-38 -86 224 0
-233 86 0
-233 38 41 0
-38 -86 233 0
-41 -86 233 0
-242 86 0
-242 41 44 0
-41 -86 242 0
-44 -86 242 0
-251 86 0
-251 44 47 0
-44 -86 251 0
-47 -86 251 0
-260 86 0
-260 47 50 0
-47 -86 260 0
-50 -86 260 0
-269 86 0
-269 50 0
-50 -86 269 0
-227 89 0
-227 38 0
-38 -89 227 0
-236 89 0
-236 38 41 0
-38 -89 236 0
-41 -89 236 0
-245 89 0
-245 41 44 0
-41 -89 245 0
-44 -89 245 0
-254 89 0
-254 44 47 0
-44 -89 254 0
-47 -89 254 0
-263 89 0
-263 47 50 0
-47 -89 263 0
-50 -89 263 0
-272 89 0
-272 50 0
-50 -89 272 0
-275 92 0
-275 53 0
-53 -92 275 0
-284 92 0
-284 53 56 0
-53 -92 284 0
-56 -92 284 0
-293 92 0
-293 53 56 59 0
-53 -92 293 0
-56 -92 293 0
-59 -92 293 0
-302 92 0
-302 56 59 62 0
-56 -92 302 0
-59 -92 302 0
-62 -92 302 0
-311 92 0
-311 59 62 0
-59 -92 311 0
-62 -92 311 0
-320 92 0
-320 62 0
-62 -92 320 0
-278 95 0
-278 53 0
-53 -95 278 0
-287 95 0
-287 53 56 0
-53 -95 287 0
-56 -95 287 0
-296 95 0
-296 53 56 59 0
-53 -95 296 0
-56 -95 296 0
-59 -95 296 0
-305 95 0
-305 56 59 62 0
-56 -95 305 0
-59 -95 305 0
-62 -95 305 0
-314 95 0
-314 59 62 0
-59 -95 314 0
-62 -95 314 0
-323 95 0
-323 62 0
-62 -95 323 0
-281 98 0
-281 53 0
-53 -98 281 0
-290 98 0
-290 53 56 0
-53 -98 290 0
-56 -98 290 0
-299 98 0
-299 53 56 59 0
-53 -98 299 0
-56 -98 299 0
-59 -98 299 0
-308 98 0
-308 56 59 62 0
-56 -98 308 0
-59 -98 308 0
-62 -98 308 0
-317 98 0
-317 59 62 0
-59 -98 317 0
-62 -98 317 0
-326 98 0
-326 62 0
-62 -98 326 0
-114 66 0
-114 3 0
-3 -66 114 0
-123 66 0
-123 6 0
-6 -66 123 0
-132 66 0
-132 9 0
-9 -66 132 0
-141 66 0
-141 12 0
-12 -66 141 0
-150 66 0
-150 15 0
-15 -66 150 0
-159 66 0
-159 18 0
-18 -66 159 0
-117 69 0
-117 3 0
-3 -69 117 0
-126 69 0
-126 6 0
-6 -69 126 0
-135 69 0
-135 9 0
-9 -69 135 0
-144 69 0
-144 12 0
-12 -69 144 0
-153 69 0
-153 15 0
-15 -69 153 0
-162 69 0
-162 18 0
-18 -69 162 0
-120 72 0
-120 3 0
-3 -72 120 0
-129 72 0
-129 6 0
-6 -72 129 0
-138 72 0
-138 9 0
-9 -72 138 0
-147 72 0
-147 12 0
-12 -72 147 0
-156 72 0
-156 15 0
-15 -72 156 0
-165 72 0
-165 18 0
-18 -72 165 0
-168 75 0
-168 21 0
-21 -75 168 0
-177 75 0
-177 24 0
-24 -75 177 0
-186 75 0
-186 27 0
-27 -75 186 0
-195 75 0
-195 30 0
-30 -75 195 0
-204 75 0
-204 33 0
-33 -75 204 0
-213 75 0
-213 36 0
-36 -75 213 0
-171 78 0
-171 21 0
-21 -78 171 0
-180 78 0
-180 24 0
-24 -78 180 0
-189 78 0
-189 27 0
-27 -78 189 0
-198 78 0
-198 30 0
-30 -78 198 0
-207 78 0
-207 33 0
-33 -78 207 0
-216 78 0
-216 36 0
-36 -78 216 0
-174 81 0
-174 21 0
-21 -81 174 0
-183 81 0
-183 24 0
-24 -81 183 0
-192 81 0
-192 27 0
-27 -81 192 0
-201 81 0
-201 30 0
-30 -81 201 0
-210 81 0
-210 33 0
-33 -81 210 0
-219 81 0
-219 36 0
-36 -81 219 0
-222 84 0
-222 39 0
-39 -84 222 0
-231 84 0
-231 39 42 0
-39 -84 231 0
-42 -84 231 0
-240 84 0
-240 42 45 0
-42 -84 240 0
-45 -84 240 0
-249 84 0
-249 45 48 0
-45 -84 249 0
-48 -84 249 0
-258 84 0
-258 48 51 0
-48 -84 258 0
-51 -84 258 0
-267 84 0
-267 51 0
-51 -84 267 0
-225 87 0
-225 39 0
-39 -87 225 0
-234 87 0
-234 39 42 0
-39 -87 234 0
-42 -87 234 0
-243 87 0
-243 42 45 0
-42 -87 243 0
-45 -87 243 0
-252 87 0
-252 45 48 0
-45 -87 252 0
-48 -87 252 0
-261 87 0
-261 48 51 0
-48 -87 261 0
-51 -87 261 0
-270 87 0
-270 51 0
-51 -87 270 0
-228 90 0
-228 39 0
-39 -90 228 0
-237 90 0
-237 39 42 0
-39 -90 237 0
-42 -90 237 0
-246 90 0
-246 42 45 0
-42 -90 246 0
-45 -90 246 0
-255 90 0
-255 45 48 0
-45 -90 255 0
-48 -90 255 0
-264 90 0
-264 48 51 0
-48 -90 264 0
-51 -90 264 0
-273 90 0
-273 51 0
-51 -90 273 0
-276 93 0
-276 54 0
-54 -93 276 0
-285 93 0
-285 54 57 0
-54 -93 285 0
-57 -93 285 0
-294 93 0
-294 54 57 60 0
-54 -93 294 0
-57 -93 294 0
-60 -93 294 0
-303 93 0
-303 57 60 63 0
-57 -93 303 0
-60 -93 303 0
-63 -93 303 0
-312 93 0
-312 60 63 0
-60 -93 312 0
-63 -93 312 0
-321 93 0
-321 63 0
-63 -93 321 0
-279 96 0
-279 54 0
-54 -96 279 0
-288 96 0
-288 54 57 0
-54 -96 288 0
-57 -96 288 0
-297 96 0
-297 54 57 60 0
-54 -96 297 0
-57 -96 297 0
-60 -96 297 0
-306 96 0
-306 57 60 63 0
-57 -96 306 0
-60 -96 306 0
-63 -96 306 0
-315 96 0
-315 60 63 0
-60 -96 315 0
-63 -96 315 0
-324 96 0
-324 63 0
-63 -96 324 0
-282 99 0
-282 54 0
-54 -99 282 0
-291 99 0
-291 54 57 0
-54 -99 291 0
-57 -99 291 0
-300 99 0
-300 54 57 60 0
-54 -99 300 0
-57 -99 300 0
-60 -99 300 0
-309 99 0
-309 57 60 63 0
-57 -99 309 0
-60 -99 309 0
-63 -99 309 0
-318 99 0
-318 60 63 0
-60 -99 318 0
-63 -99 318 0
-327 99 0
-327 63 0
-63 -99 327 0
-1 -64 -19 -73 0
-1 -67 -19 -76 0
-1 -70 -19 -79 0
-4 -64 -22 -73 0
-4 -67 -22 -76 0
-4 -70 -22 -79 0
-7 -64 -25 -73 0
-7 -67 -25 -76 0
-7 -70 -25 -79 0
-10 -64 -28 -73 0
-10 -67 -28 -76 0
-10 -70 -28 -79 0
-13 -64 -31 -73 0
-13 -67 -31 -76 0
-13 -70 -31 -79 0
-16 -64 -34 -73 0
-16 -67 -34 -76 0
-16 -70 -34 -79 0
-1 -64 -37 -82 0
-1 -67 -37 -85 0
-1 -70 -37 -88 0
-4 -64 -37 -82 0
-4 -67 -37 -85 0
-4 -70 -37 -88 0
-4 -64 -40 -82 0
-4 -67 -40 -85 0
-4 -70 -40 -88 0
-7 -64 -40 -82 0
-7 -67 -40 -85 0
-7 -70 -40 -88 0
-7 -64 -43 -82 0
-7 -67 -43 -85 0
-7 -70 -43 -88 0
-10 -64 -43 -82 0
-10 -67 -43 -85 0
-10 -70 -43 -88 0
-10 -64 -46 -82 0
-10 -67 -46 -85 0
-10 -70 -46 -88 0
-13 -64 -46 -82 0
-13 -67 -46 -85 0
-13 -70 -46 -88 0
-13 -64 -49 -82 0
-13 -67 -49 -85 0
-13 -70 -49 -88 0
-16 -64 -49 -82 0
-16 -67 -49 -85 0
-16 -70 -49 -88 0
-1 -64 -52 -91 0
-1 -67 -52 -94 0
-1 -70 -52 -97 0
-4 -64 -52 -91 0
-4 -67 -52 -94 0
-4 -70 -52 -97 0
-4 -64 -55 -91 0
-4 -67 -55 -94 0
-4 -70 -55 -97 0
-7 -64 -52 -91 0
-7 -67 -52 -94 0
-7 -70 -52 -97 0
-7 -64 -55 -91 0
-7 -67 -55 -94 0
-7 -70 -55 -97 0
-7 -64 -58 -91 0
-7 -67 -58 -94 0
-7 -70 -58 -97 0
-10 -64 -55 -91 0
-10 -67 -55 -94 0
-10 -70 -55 -97 0
-10 -64 -58 -91 0
-10 -67 -58 -94 0
-10 -70 -58 -97 0
-10 -64 -61 -91 0
-10 -67 -61 -94 0
-10 -70 -61 -97 0
-13 -64 -58 -91 0
-13 -67 -58 -94 0
-13 -70 -58 -97 0
-13 -64 -61 -91 0
-13 -67 -61 -94 0
-13 -70 -61 -97 0
-16 -64 -61 -91 0
-16 -67 -61 -94 0
-16 -70 -61 -97 0
-19 -73 -37 -82 0
-19 -76 -37 -85 0
-19 -79 -37 -88 0
-22 -73 -37 -82 0
-22 -76 -37 -85 0
-22 -79 -37 -88 0
-22 -73 -40 -82 0
-22 -76 -40 -85 0
-22 -79 -40 -88 0
-25 -73 -40 -82 0
-25 -76 -40 -85 0
-25 -79 -40 -88 0
-25 -73 -43 -82 0
-25 -76 -43 -85 0
-25 -79 -43 -88 0
-28 -73 -43 -82 0
-28 -76 -43 -85 0
-28 -79 -43 -88 0
-28 -73 -46 -82 0
-28 -76 -46 -85 0
-28 -79 -46 -88 0
-31 -73 -46 -82 0
-31 -76 -46 -85 0
-31 -79 -46 -88 0
-31 -73 -49 -82 0
-31 -76 -49 -85 0
-31 -79 -49 -88 0
-34 -73 -49 -82 0
-34 -76 -49 -85 0
-34 -79 -49 -88 0
-19 -73 -52 -91 0
-19 -76 -52 -94 0
-19 -79 -52 -97 0
-22 -73 -52 -91 0
-22 -76 -52 -94 0
-22 -79 -52 -97 0
-22 -73 -55 -91 0
-22 -76 -55 -94 0
-22 -79 -55 -97 0
-25 -73 -52 -91 0
-25 -76 -52 -94 0
-25 -79 -52 -97 0
-25 -73 -55 -91 0
-25 -76 -55 -94 0
-25 -79 -55 -97 0
-25 -73 -58 -91 0
-25 -76 -58 -94 0
-25 -79 -58 -97 0
-28 -73 -55 -91 0
-28 -76 -55 -94 0
-28 -79 -55 -97 0
-28 -73 -58 -91 0
-28 -76 -58 -94 0
-28 -79 -58 -97 0
-28 -73 -61 -91 0
-28 -76 -61 -94 0
-28 -79 -61 -97 0
-31 -73 -58 -91 0
-31 -76 -58 -94 0
-31 -79 -58 -97 0
-31 -73 -61 -91 0
-31 -76 -61 -94 0
-31 -79 -61 -97 0
-34 -73 -61 -91 0
-34 -76 -61 -94 0
-34 -79 -61 -97 0
-37 -82 -52 -91 0
-37 -85 -52 -94 0
-37 -88 -52 -97 0
-37 -82 -55 -91 0
-37 -85 -55 -94 0
-37 -88 -55 -97 0
-40 -82 -52 -91 0
-40 -85 -52 -94 0
-40 -88 -52 -97 0
-40 -82 -55 -91 0
-40 -85 -55 -94 0
-40 -88 -55 -97 0
-40 -82 -58 -91 0
-40 -85 -58 -94 0
-40 -88 -58 -97 0
-43 -82 -52 -91 0
-43 -85 -52 -94 0
-43 -88 -52 -97 0
-43 -82 -55 -91 0
-43 -85 -55 -94 0
-43 -88 -55 -97 0
-43 -82 -58 -91 0
-43 -85 -58 -94 0
-43 -88 -58 -97 0
-43 -82 -61 -91 0
-43 -85 -61 -94 0
-43 -88 -61 -97 0
-46 -82 -55 -91 0
-46 -85 -55 -94 0
-46 -88 -55 -97 0
-46 -82 -58 -91 0
-46 -85 -58 -94 0
-46 -88 -58 -97 0
-46 -82 -61 -91 0
-46 -85 -61 -94 0
-46 -88 -61 -97 0
-49 -82 -58 -91 0
-49 -85 -58 -94 0
-49 -88 -58 -97 0
-49 -82 -61 -91 0
-49 -85 -61 -94 0
-49 -88 -61 -97 0
-2 -65 -20 -74 0
-2 -68 -20 -77 0
-2 -71 -20 -80 0
-5 -65 -23 -74 0
-5 -68 -23 -77 0
-5 -71 -23 -80 0
-8 -65 -26 -74 0
-8 -68 -26 -77 0
-8 -71 -26 -80 0
-11 -65 -29 -74 0
-11 -68 -29 -77 0
-11 -71 -29 -80 0
-14 -65 -32 -74 0
-14 -68 -32 -77 0
-14 -71 -32 -80 0
-17 -65 -35 -74 0
-17 -68 -35 -77 0
-17 -71 -35 -80 0
-2 -65 -38 -83 0
-2 -68 -38 -86 0
-2 -71 -38 -89 0
-5 -65 -38 -83 0
-5 -68 -38 -86 0
-5 -71 -38 -89 0
-5 -65 -41 -83 0
-5 -68 -41 -86 0
-5 -71 -41 -89 0
-8 -65 -41 -83 0
-8 -68 -41 -86 0
-8 -71 -41 -89 0
-8 -65 -44 -83 0
-8 -68 -44 -86 0
-8 -71 -44 -89 0
-11 -65 -44 -83 0
-11 -68 -44 -86 0
-11 -71 -44 -89 0
-11 -65 -47 -83 0
-11 -68 -47 -86 0
-11 -71 -47 -89 0
-14 -65 -47 -83 0
-14 -68 -47 -86 0
-14 -71 -47 -89 0
-14 -65 -50 -83 0
-14 -68 -50 -86 0
-14 -71 -50 -89 0
-17 -65 -50 -83 0
-17 -68 -50 -86 0
-17 -71 -50 -89 0
-2 -65 -53 -92 0
-2 -68 -53 -95 0
-2 -71 -53 -98 0
-5 -65 -53 -92 0
-5 -68 -53 -95 0
-5 -71 -53 -98 0
-5 -65 -56 -92 0
-5 -68 -56 -95 0
-5 -71 -56 -98 0
-8 -65 -53 -92 0
-8 -68 -53 -95 0
-8 -71 -53 -98 0
-8 -65 -56 -92 0
-8 -68 -56 -95 0
-8 -71 -56 -98 0
-8 -65 -59 -92 0
-8 -68 -59 -95 0
-8 -71 -59 -98 0
-11 -65 -56 -92 0
-11 -68 -56 -95 0
-11 -71 -56 -98 0
-11 -65 -59 -92 0
-11 -68 -59 -95 0
-11 -71 -59 -98 0
-11 -65 -62 -92 0
-11 -68 -62 -95 0
-11 -71 -62 -98 0
-14 -65 -59 -92 0
-14 -68 -59 -95 0
-14 -71 -59 -98 0
-14 -65 -62 -92 0
-14 -68 -62 -95 0
-14 -71 -62 -98 0
-17 -65 -62 -92 0
-17 -68 -62 -95 0
-17 -71 -62 -98 0
-20 -74 -38 -83 0
-20 -77 -38 -86 0
-20 -80 -38 -89 0
-23 -74 -38 -83 0
-23 -77 -38 -86 0
-23 -80 -38 -89 0
-23 -74 -41 -83 0
-23 -77 -41 -86 0
-23 -80 -41 -89 0
-26 -74 -41 -83 0
-26 -77 -41 -86 0
-26 -80 -41 -89 0
-26 -74 -44 -83 0
-26 -77 -44 -86 0
-26 -80 -44 -89 0
-29 -74 -44 -83 0
-29 -77 -44 -86 0
-29 -80 -44 -89 0
-29 -74 -47 -83 0
-29 -77 -47 -86 0
-29 -80 -47 -89 0
-32 -74 -47 -83 0
-32 -77 -47 -86 0
-32 -80 -47 -89 0
-32 -74 -50 -83 0
-32 -77 -50 -86 0
-32 -80 -50 -89 0
-35 -74 -50 -83 0
-35 -77 -50 -86 0
-35 -80 -50 -89 0
-20 -74 -53 -92 0
-20 -77 -53 -95 0
-20 -80 -53 -98 0
-23 -74 -53 -92 0
-23 -77 -53 -95 0
-23 -80 -53 -98 0
-23 -74 -56 -92 0
-23 -77 -56 -95 0
-23 -80 -56 -98 0
-26 -74 -53 -92 0
-26 -77 -53 -95 0
-26 -80 -53 -98 0
-26 -74 -56 -92 0
-26 -77 -56 -95 0
-26 -80 -56 -98 0
-26 -74 -59 -92 0
-26 -77 -59 -95 0
-26 -80 -59 -98 0
-29 -74 -56 -92 0
-29 -77 -56 -95 0
-29 -80 -56 -98 0
-29 -74 -59 -92 0
-29 -77 -59 -95 0
-29 -80 -59 -98 0
-29 -74 -62 -92 0
-29 -77 -62 -95 0
-29 -80 -62 -98 0
-32 -74 -59 -92 0
-32 -77 -59 -95 0
-32 -80 -59 -98 0
-32 -74 -62 -92 0
-32 -77 -62 -95 0
-32 -80 -62 -98 0
-35 -74 -62 -92 0
-35 -77 -62 -95 0
-35 -80 -62 -98 0
-38 -83 -53 -92 0
-38 -86 -53 -95 0
-38 -89 -53 -98 0
-38 -83 -56 -92 0
-38 -86 -56 -95 0
-38 -89 -56 -98 0
-41 -83 -53 -92 0
-41 -86 -53 -95 0
-41 -89 -53 -98 0
-41 -83 -56 -92 0
-41 -86 -56 -95 0
-41 -89 -56 -98 0
-41 -83 -59 -92 0
-41 -86 -59 -95 0
-41 -89 -59 -98 0
-44 -83 -53 -92 0
-44 -86 -53 -95 0
-44 -89 -53 -98 0
-44 -83 -56 -92 0
-44 -86 -56 -95 0
-44 -89 -56 -98 0
-44 -83 -59 -92 0
-44 -86 -59 -95 0
-44 -89 -59 -98 0
-44 -83 -62 -92 0
-44 -86 -62 -95 0
-44 -89 -62 -98 0
-47 -83 -56 -92 0
-47 -86 -56 -95 0
-47 -89 -56 -98 0
-47 -83 -59 -92 0
-47 -86 -59 -95 0
-47 -89 -59 -98 0
-47 -83 -62 -92 0
-47 -86 -62 -95 0
-47 -89 -62 -98 0
-50 -83 -59 -92 0
-50 -86 -59 -95 0
-50 -89 -59 -98 0
-50 -83 -62 -92 0
-50 -86 -62 -95 0
-50 -89 -62 -98 0
-3 -66 -21 -75 0
-3 -69 -21 -78 0
-3 -72 -21 -81 0
-6 -66 -24 -75 0
-6 -69 -24 -78 0
-6 -72 -24 -81 0
-9 -66 -27 -75 0
-9 -69 -27 -78 0
-9 -72 -27 -81 0
-12 -66 -30 -75 0
-12 -69 -30 -78 0
-12 -72 -30 -81 0
-15 -66 -33 -75 0
-15 -69 -33 -78 0
-15 -72 -33 -81 0
-18 -66 -36 -75 0
-18 -69 -36 -78 0
-18 -72 -36 -81 0
-3 -66 -39 -84 0
-3 -69 -39 -87 0
-3 -72 -39 -90 0
-6 -66 -39 -84 0
-6 -69 -39 -87 0
-6 -72 -39 -90 0
-6 -66 -42 -84 0
-6 -69 -42 -87 0
-6 -72 -42 -90 0
-9 -66 -42 -84 0
-9 -69 -42 -87 0
-9 -72 -42 -90 0
-9 -66 -45 -84 0
-9 -69 -45 -87 0
-9 -72 -45 -90 0
-12 -66 -45 -84 0
-12 -69 -45 -87 0
-12 -72 -45 -90 0
-12 -66 -48 -84 0
-12 -69 -48 -87 0
-12 -72 -48 -90 0
-15 -66 -48 -84 0
-15 -69 -48 -87 0
-15 -72 -48 -90 0
-15 -66 -51 -84 0
-15 -69 -51 -87 0
-15 -72 -51 -90 0
-18 -66 -51 -84 0
-18 -69 -51 -87 0
-18 -72 -51 -90 0
-3 -66 -54 -93 0
-3 -69 -54 -96 0
-3 -72 -54 -99 0
-6 -66 -54 -93 0
-6 -69 -54 -96 0
-6 -72 -54 -99 0
-6 -66 -57 -93 0
-6 -69 -57 -96 0
-6 -72 -57 -99 0
-9 -66 -54 -93 0
-9 -69 -54 -96 0
-9 -72 -54 -99 0
-9 -66 -57 -93 0
-9 -69 -57 -96 0
-9 -72 -57 -99 0
-9 -66 -60 -93 0
-9 -69 -60 -96 0
-9 -72 -60 -99 0
-12 -66 -57 -93 0
-12 -69 -57 -96 0
-12 -72 -57 -99 0
-12 -66 -60 -93 0
-12 -69 -60 -96 0
-12 -72 -60 -99 0
-12 -66 -63 -93 0
-12 -69 -63 -96 0
-12 -72 -63 -99 0
-15 -66 -60 -93 0
-15 -69 -60 -96 0
-15 -72 -60 -99 0
-15 -66 -63 -93 0
-15 -69 -63 -96 0
-15 -72 -63 -99 0
-18 -66 -63 -93 0
-18 -69 -63 -96 0
-18 -72 -63 -99 0
-21 -75 -39 -84 0
-21 -78 -39 -87 0
-21 -81 -39 -90 0
-24 -75 -39 -84 0
-24 -78 -39 -87 0
-24 -81 -39 -90 0
-24 -75 -42 -84 0
-24 -78 -42 -87 0
-24 -81 -42 -90 0
-27 -75 -42 -84 0
-27 -78 -42 -87 0
-27 -81 -42 -90 0
-27 -75 -45 -84 0
-27 -78 -45 -87 0
-27 -81 -45 -90 0
-30 -75 -45 -84 0
-30 -78 -45 -87 0
-30 -81 -45 -90 0
-30 -75 -48 -84 0
-30 -78 -48 -87 0
-30 -81 -48 -90 0
-33 -75 -48 -84 0
-33 -78 -48 -87 0
-33 -81 -48 -90 0
-33 -75 -51 -84 0
-33 -78 -51 -87 0
-33 -81 -51 -90 0
-36 -75 -51 -84 0
-36 -78 -51 -87 0
-36 -81 -51 -90 0
-21 -75 -54 -93 0
-21 -78 -54 -96 0
-21 -81 -54 -99 0
-24 -75 -54 -93 0
-24 -78 -54 -96 0
-24 -81 -54 -99 0
-24 -75 -57 -93 0
-24 -78 -57 -96 0
-24 -81 -57 -99 0
-27 -75 -54 -93 0
-27 -78 -54 -96 0
-27 -81 -54 -99 0
-27 -75 -57 -93 0
-27 -78 -57 -96 0
-27 -81 -57 -99 0
-27 -75 -60 -93 0
-27 -78 -60 -96 0
-27 -81 -60 -99 0
-30 -75 -57 -93 0
-30 -78 -57 -96 0
-30 -81 -57 -99 0
-30 -75 -60 -93 0
-30 -78 -60 -96 0
-30 -81 -60 -99 0
-30 -75 -63 -93 0
-30 -78 -63 -96 0
-30 -81 -63 -99 0
-33 -75 -60 -93 0
-33 -78 -60 -96 0
-33 -81 -60 -99 0
-33 -75 -63 -93 0
-33 -78 -63 -96 0
-33 -81 -63 -99 0
-36 -75 -63 -93 0
-36 -78 -63 -96 0
-36 -81 -63 -99 0
-39 -84 -54 -93 0
-39 -87 -54 -96 0
-39 -90 -54 -99 0
-39 -84 -57 -93 0
-39 -87 -57 -96 0
-39 -90 -57 -99 0
-42 -84 -54 -93 0
-42 -87 -54 -96 0
-42 -90 -54 -99 0
-42 -84 -57 -93 0
-42 -87 -57 -96 0
-42 -90 -57 -99 0
-42 -84 -60 -93 0
-42 -87 -60 -96 0
-42 -90 -60 -99 0
-45 -84 -54 -93 0
-45 -87 -54 -96 0
-45 -90 -54 -99 0
-45 -84 -57 -93 0
-45 -87 -57 -96 0
-45 -90 -57 -99 0
-45 -84 -60 -93 0
-45 -87 -60 -96 0
-45 -90 -60 -99 0
-45 -84 -63 -93 0
-45 -87 -63 -96 0
-45 -90 -63 -99 0
-48 -84 -57 -93 0
-48 -87 -57 -96 0
-48 -90 -57 -99 0
-48 -84 -60 -93 0
-48 -87 -60 -96 0
-48 -90 -60 -99 0
-48 -84 -63 -93 0
-48 -87 -63 -96 0
-48 -90 -63 -99 0
-51 -84 -60 -93 0
-51 -87 -60 -96 0
-51 -90 -60 -99 0
-51 -84 -63 -93 0
-51 -87 -63 -96 0
-51 -90 -63 -99 0
-100 -1 -64 -19 -76 0
-100 -1 -64 -37 -85 0
-100 -1 -64 -52 -94 0
-1 -64 100 19 76 37 85 52 94 0
-100 -1 -67 -19 -79 0
-100 -1 -67 -37 -88 0
-100 -1 -67 -52 -97 0
-1 -67 100 19 79 37 88 52 97 0
-100 -4 -64 -22 -76 0
-100 -4 -64 -37 -85 0
-100 -4 -64 -40 -85 0
-100 -4 -64 -52 -94 0
-100 -4 -64 -55 -94 0
-4 -64 100 22 76 37 85 40 85 52 94 55 94 0
-100 -4 -67 -22 -79 0
-100 -4 -67 -37 -88 0
-100 -4 -67 -40 -88 0
-100 -4 -67 -52 -97 0
-100 -4 -67 -55 -97 0
-4 -67 100 22 79 37 88 40 88 52 97 55 97 0
-100 -7 -64 -25 -76 0
-100 -7 -64 -40 -85 0
-100 -7 -64 -43 -85 0
-100 -7 -64 -52 -94 0
-100 -7 -64 -55 -94 0
-100 -7 -64 -58 -94 0
-7 -64 100 25 76 40 85 43 85 52 94 55 94 58 94 0
-100 -7 -67 -25 -79 0
-100 -7 -67 -40 -88 0
-100 -7 -67 -43 -88 0
-100 -7 -67 -52 -97 0
-100 -7 -67 -55 -97 0
-100 -7 -67 -58 -97 0
-7 -67 100 25 79 40 88 43 88 52 97 55 97 58 97 0
-100 -10 -64 -28 -76 0
-100 -10 -64 -43 -85 0
-100 -10 -64 -46 -85 0
-100 -10 -64 -55 -94 0
-100 -10 -64 -58 -94 0
-100 -10 -64 -61 -94 0
-10 -64 100 28 76 43 85 46 85 55 94 58 94 61 94 0
-100 -10 -67 -28 -79 0
-100 -10 -67 -43 -88 0
-100 -10 -67 -46 -88 0
-100 -10 -67 -55 -97 0
-100 -10 -67 -58 -97 0
-100 -10 -67 -61 -97 0
-10 -67 100 28 79 43 88 46 88 55 97 58 97 61 97 0
-100 -13 -64 -31 -76 0
-100 -13 -64 -46 -85 0
-100 -13 -64 -49 -85 0
-100 -13 -64 -58 -94 0
-100 -13 -64 -61 -94 0
-13 -64 100 31 76 46 85 49 85 58 94 61 94 0
-100 -13 -67 -31 -79 0
-100 -13 -67 -46 -88 0
-100 -13 -67 -49 -88 0
-100 -13 -67 -58 -97 0
-100 -13 -67 -61 -97 0
-13 -67 100 31 79 46 88 49 88 58 97 61 97 0
-100 -16 -64 -34 -76 0
-100 -16 -64 -49 -85 0
-100 -16 -64 -61 -94 0
-16 -64 100 34 76 49 85 61 94 0
-100 -16 -67 -34 -79 0
-100 -16 -67 -49 -88 0
-100 -16 -67 -61 -97 0
-16 -67 100 34 79 49 88 61 97 0
-103 -19 -73 -1 -67 0
-103 -19 -73 -37 -85 0
-103 -19 -73 -52 -94 0
-19 -73 103 1 67 37 85 52 94 0
-103 -19 -76 -1 -70 0
-103 -19 -76 -37 -88 0
-103 -19 -76 -52 -97 0
-19 -76 103 1 70 37 88 52 97 0
-103 -22 -73 -4 -67 0
-103 -22 -73 -37 -85 0
-103 -22 -73 -40 -85 0
-103 -22 -73 -52 -94 0
-103 -22 -73 -55 -94 0
-22 -73 103 4 67 37 85 40 85 52 94 55 94 0
-103 -22 -76 -4 -70 0
-103 -22 -76 -37 -88 0
-103 -22 -76 -40 -88 0
-103 -22 -76 -52 -97 0
-103 -22 -76 -55 -97 0
-22 -76 103 4 70 37 88 40 88 52 97 55 97 0
-103 -25 -73 -7 -67 0
-103 -25 -73 -40 -85 0
-103 -25 -73 -43 -85 0
-103 -25 -73 -52 -94 0
-103 -25 -73 -55 -94 0
-103 -25 -73 -58 -94 0
-25 -73 103 7 67 40 85 43 85 52 94 55 94 58 94 0
-103 -25 -76 -7 -70 0
-103 -25 -76 -40 -88 0
-103 -25 -76 -43 -88 0
-103 -25 -76 -52 -97 0
-103 -25 -76 -55 -97 0
-103 -25 -76 -58 -97 0
-25 -76 103 7 70 40 88 43 88 52 97 55 97 58 97 0
-103 -28 -73 -10 -67 0
-103 -28 -73 -43 -85 0
-103 -28 -73 -46 -85 0
-103 -28 -73 -55 -94 0
-103 -28 -73 -58 -94 0
-103 -28 -73 -61 -94 0
-28 -73 103 10 67 43 85 46 85 55 94 58 94 61 94 0
-103 -28 -76 -10 -70 0
-103 -28 -76 -43 -88 0
-103 -28 -76 -46 -88 0
-103 -28 -76 -55 -97 0
-103 -28 -76 -58 -97 0
-103 -28 -76 -61 -97 0
-28 -76 103 10 70 43 88 46 88 55 97 58 97 61 97 0
-103 -31 -73 -13 -67 0
-103 -31 -73 -46 -85 0
-103 -31 -73 -49 -85 0
-103 -31 -73 -58 -94 0
-103 -31 -73 -61 -94 0
-31 -73 103 13 67 46 85 49 85 58 94 61 94 0
-103 -31 -76 -13 -70 0
-103 -31 -76 -46 -88 0
-103 -31 -76 -49 -88 0
-103 -31 -76 -58 -97 0
-103 -31 -76 -61 -97 0
-31 -76 103 13 70 46 88 49 88 58 97 61 97 0
-103 -34 -73 -16 -67 0
-103 -34 -73 -49 -85 0
-103 -34 -73 -61 -94 0
-34 -73 103 16 67 49 85 61 94 0
-103 -34 -76 -16 -70 0
-103 -34 -76 -49 -88 0
-103 -34 -76 -61 -97 0
-34 -76 103 16 70 49 88 61 97 0
-106 -37 -82 -1 -67 0
-106 -37 -82 -4 -67 0
-106 -37 -82 -19 -76 0
-106 -37 -82 -22 -76 0
-106 -37 -82 -52 -94 0
-106 -37 -82 -55 -94 0
-37 -82 106 1 67 4 67 19 76 22 76 52 94 55 94 0
-106 -37 -85 -1 -70 0
-106 -37 -85 -4 -70 0
-106 -37 -85 -19 -79 0
-106 -37 -85 -22 -79 0
-106 -37 -85 -52 -97 0
-106 -37 -85 -55 -97 0
-37 -85 106 1 70 4 70 19 79 22 79 52 97 55 97 0
-106 -40 -82 -4 -67 0
-106 -40 -82 -7 -67 0
-106 -40 -82 -22 -76 0
-106 -40 -82 -25 -76 0
-106 -40 -82 -52 -94 0
-106 -40 -82 -55 -94 0
-106 -40 -82 -58 -94 0
-40 -82 106 4 67 7 67 22 76 25 76 52 94 55 94 58 94 0
-106 -40 -85 -4 -70 0
-106 -40 -85 -7 -70 0
-106 -40 -85 -22 -79 0
-106 -40 -85 -25 -79 0
-106 -40 -85 -52 -97 0
-106 -40 -85 -55 -97 0
-106 -40 -85 -58 -97 0
-40 -85 106 4 70 7 70 22 79 25 79 52 97 55 97 58 97 0
-106 -43 -82 -7 -67 0
-106 -43 -82 -10 -67 0
-106 -43 -82 -25 -76 0
-106 -43 -82 -28 -76 0
-106 -43 -82 -52 -94 0
-106 -43 -82 -55 -94 0
-106 -43 -82 -58 -94 0
-106 -43 -82 -61 -94 0
-43 -82 106 7 67 10 67 25 76 28 76 52 94 55 94 58 94 61 94 0
-106 -43 -85 -7 -70 0
-106 -43 -85 -10 -70 0
-106 -43 -85 -25 -79 0
-106 -43 -85 -28 -79 0
-106 -43 -85 -52 -97 0
-106 -43 -85 -55 -97 0
-106 -43 -85 -58 -97 0
-106 -43 -85 -61 -97 0
-43 -85 106 7 70 10 70 25 79 28 79 52 97 55 97 58 97 61 97 0
-106 -46 -82 -10 -67 0
-106 -46 -82 -13 -67 0
-106 -46 -82 -28 -76 0
-106 -46 -82 -31 -76 0
-106 -46 -82 -55 -94 0
-106 -46 -82 -58 -94 0
-106 -46 -82 -61 -94 0
-46 -82 106 10 67 13 67 28 76 31 76 55 94 58 94 61 94 0
-106 -46 -85 -10 -70 0
-106 -46 -85 -13 -70 0
-106 -46 -85 -28 -79 0
-106 -46 -85 -31 -79 0
-106 -46 -85 -55 -97 0
-106 -46 -85 -58 -97 0
-106 -46 -85 -61 -97 0
-46 -85 106 10 70 13 70 28 79 31 79 55 97 58 97 61 97 0
-106 -49 -82 -13 -67 0
-106 -49 -82 -16 -67 0
-106 -49 -82 -31 -76 0
-106 -49 -82 -34 -76 0
-106 -49 -82 -58 -94 0
-106 -49 -82 -61 -94 0
-49 -82 106 13 67 16 67 31 76 34 76 58 94 61 94 0
-106 -49 -85 -13 -70 0
-106 -49 -85 -16 -70 0
-106 -49 -85 -31 -79 0
-106 -49 -85 -34 -79 0
-106 -49 -85 -58 -97 0
-106 -49 -85 -61 -97 0
-49 -85 106 13 70 16 70 31 79 34 79 58 97 61 97 0
-109 -52 -91 -1 -67 0
-109 -52 -91 -4 -67 0
-109 -52 -91 -7 -67 0
-109 -52 -91 -19 -76 0
-109 -52 -91 -22 -76 0
-109 -52 -91 -25 -76 0
-109 -52 -91 -37 -85 0
-109 -52 -91 -40 -85 0
-109 -52 -91 -43 -85 0
-52 -91 109 1 67 4 67 7 67 19 76 22 76 25 76 37 85 40 85 43 85 0
-109 -52 -94 -1 -70 0
-109 -52 -94 -4 -70 0
-109 -52 -94 -7 -70 0
-109 -52 -94 -19 -79 0
-109 -52 -94 -22 -79 0
-109 -52 -94 -25 -79 0
-109 -52 -94 -37 -88 0
-109 -52 -94 -40 -88 0
-109 -52 -94 -43 -88 0
-52 -94 109 1 70 4 70 7 70 19 79 22 79 25 79 37 88 40 88 43 88 0
-109 -55 -91 -4 -67 0
-109 -55 -91 -7 -67 0
-109 -55 -91 -10 -67 0
-109 -55 -91 -22 -76 0
-109 -55 -91 -25 -76 0
-109 -55 -91 -28 -76 0
-109 -55 -91 -37 -85 0
-109 -55 -91 -40 -85 0
-109 -55 -91 -43 -85 0
-109 -55 -91 -46 -85 0
-55 -91 109 4 67 7 67 10 67 22 76 25 76 28 76 37 85 40 85 43 85 46 85 0
-109 -55 -94 -4 -70 0
-109 -55 -94 -7 -70 0
-109 -55 -94 -10 -70 0
-109 -55 -94 -22 -79 0
-109 -55 -94 -25 -79 0
-109 -55 -94 -28 -79 0
-109 -55 -94 -37 -88 0
-109 -55 -94 -40 -88 0
-109 -55 -94 -43 -88 0
-109 -55 -94 -46 -88 0
-55 -94 109 4 70 7 70 10 70 22 79 25 79 28 79 37 88 40 88 43 88 46 88 0
-109 -58 -91 -7 -67 0
-109 -58 -91 -10 -67 0
-109 -58 -91 -13 -67 0
-109 -58 -91 -25 -76 0
-109 -58 -91 -28 -76 0
-109 -58 -91 -31 -76 0
-109 -58 -91 -40 -85 0
-109 -58 -91 -43 -85 0
-109 -58 -91 -46 -85 0
-109 -58 -91 -49 -85 0
-58 -91 109 7 67 10 67 13 67 25 76 28 76 31 76 40 85 43 85 46 85 49 85 0
-109 -58 -94 -7 -70 0
-109 -58 -94 -10 -70 0
-109 -58 -94 -13 -70 0
-109 -58 -94 -25 -79 0
-109 -58 -94 -28 -79 0
-109 -58 -94 -31 -79 0
-109 -58 -94 -40 -88 0
-109 -58 -94 -43 -88 0
-109 -58 -94 -46 -88 0
-109 -58 -94 -49 -88 0
-58 -94 109 7 70 10 70 13 70 25 79 28 79 31 79 40 88 43 88 46 88 49 88 0
-109 -61 -91 -10 -67 0
-109 -61 -91 -13 -67 0
-109 -61 -91 -16 -67 0
-109 -61 -91 -28 -76 0
-109 -61 -91 -31 -76 0
-109 -61 -91 -34 -76 0
-109 -61 -91 -43 -85 0
-109 -61 -91 -46 -85 0
-109 -61 -91 -49 -85 0
-61 -91 109 10 67 13 67 16 67 28 76 31 76 34 76 43 85 46 85 49 85 0
-109 -61 -94 -10 -70 0
-109 -61 -94 -13 -70 0
-109 -61 -94 -16 -70 0
-109 -61 -94 -28 -79 0
-109 -61 -94 -31 -79 0
-109 -61 -94 -34 -79 0
-109 -61 -94 -43 -88 0
-109 -61 -94 -46 -88 0
-109 -61 -94 -49 -88 0
-61 -94 109 10 70 13 70 16 70 28 79 31 79 34 79 43 88 46 88 49 88 0
-101 -2 -65 -20 -77 0
-101 -2 -65 -38 -86 0
-101 -2 -65 -53 -95 0
-2 -65 101 20 77 38 86 53 95 0
-101 -2 -68 -20 -80 0
-101 -2 -68 -38 -89 0
-101 -2 -68 -53 -98 0
-2 -68 101 20 80 38 89 53 98 0
-101 -5 -65 -23 -77 0
-101 -5 -65 -38 -86 0
-101 -5 -65 -41 -86 0
-101 -5 -65 -53 -95 0
-101 -5 -65 -56 -95 0
-5 -65 101 23 77 38 86 41 86 53 95 56 95 0
-101 -5 -68 -23 -80 0
-101 -5 -68 -38 -89 0
-101 -5 -68 -41 -89 0
-101 -5 -68 -53 -98 0
-101 -5 -68 -56 -98 0
-5 -68 101 23 80 38 89 41 89 53 98 56 98 0
-101 -8 -65 -26 -77 0
-101 -8 -65 -41 -86 0
-101 -8 -65 -44 -86 0
-101 -8 -65 -53 -95 0
-101 -8 -65 -56 -95 0
-101 -8 -65 -59 -95 0
-8 -65 101 26 77 41 86 44 86 53 95 56 95 59 95 0
-101 -8 -68 -26 -80 0
-101 -8 -68 -41 -89 0
-101 -8 -68 -44 -89 0
-101 -8 -68 -53 -98 0
-101 -8 -68 -56 -98 0
-101 -8 -68 -59 -98 0
-8 -68 101 26 80 41 89 44 89 53 98 56 98 59 98 0
-101 -11 -65 -29 -77 0
-101 -11 -65 -44 -86 0
-101 -11 -65 -47 -86 0
-101 -11 -65 -56 -95 0
-101 -11 -65 -59 -95 0
-101 -11 -65 -62 -95 0
-11 -65 101 29 77 44 86 47 86 56 95 59 95 62 95 0
-101 -11 -68 -29 -80 0
-101 -11 -68 -44 -89 0
-101 -11 -68 -47 -89 0
-101 -11 -68 -56 -98 0
-101 -11 -68 -59 -98 0
-101 -11 -68 -62 -98 0
-11 -68 101 29 80 44 89 47 89 56 98 59 98 62 98 0
-101 -14 -65 -32 -77 0
-101 -14 -65 -47 -86 0
-101 -14 -65 -50 -86 0
-101 -14 -65 -59 -95 0
-101 -14 -65 -62 -95 0
-14 -65 101 32 77 47 86 50 86 59 95 62 95 0
-101 -14 -68 -32 -80 0
-101 -14 -68 -47 -89 0
-101 -14 -68 -50 -89 0
-101 -14 -68 -59 -98 0
-101 -14 -68 -62 -98 0
-14 -68 101 32 80 47 89 50 89 59 98 62 98 0
-101 -17 -65 -35 -77 0
-101 -17 -65 -50 -86 0
-101 -17 -65 -62 -95 0
-17 -65 101 35 77 50 86 62 95 0
-101 -17 -68 -35 -80 0
-101 -17 -68 -50 -89 0
-101 -17 -68 -62 -98 0
-17 -68 101 35 80 50 89 62 98 0
-104 -20 -74 -2 -68 0
-104 -20 -74 -38 -86 0
-104 -20 -74 -53 -95 0
-20 -74 104 2 68 38 86 53 95 0
-104 -20 -77 -2 -71 0
-104 -20 -77 -38 -89 0
-104 -20 -77 -53 -98 0
-20 -77 104 2 71 38 89 53 98 0
-104 -23 -74 -5 -68 0
-104 -23 -74 -38 -86 0
-104 -23 -74 -41 -86 0
-104 -23 -74 -53 -95 0
-104 -23 -74 -56 -95 0
-23 -74 104 5 68 38 86 41 86 53 95 56 95 0
-104 -23 -77 -5 -71 0
-104 -23 -77 -38 -89 0
-104 -23 -77 -41 -89 0
-104 -23 -77 -53 -98 0
-104 -23 -77 -56 -98 0
-23 -77 104 5 71 38 89 41 89 53 98 56 98 0
-104 -26 -74 -8 -68 0
-104 -26 -74 -41 -86 0
-104 -26 -74 -44 -86 0
-104 -26 -74 -53 -95 0
-104 -26 -74 -56 -95 0
-104 -26 -74 -59 -95 0
-26 -74 104 8 68 41 86 44 86 53 95 56 95 59 95 0
-104 -26 -77 -8 -71 0
-104 -26 -77 -41 -89 0
-104 -26 -77 -44 -89 0
-104 -26 -77 -53 -98 0
-104 -26 -77 -56 -98 0
-104 -26 -77 -59 -98 0
-26 -77 104 8 71 41 89 44 89 53 98 56 98 59 98 0
-104 -29 -74 -11 -68 0
-104 -29 -74 -44 -86 0
-104 -29 -74 -47 -86 0
-104 -29 -74 -56 -95 0
-104 -29 -74 -59 -95 0
-104 -29 -74 -62 -95 0
-29 -74 104 11 68 44 86 47 86 56 95 59 95 62 95 0
-104 -29 -77 -11 -71 0
-104 -29 -77 -44 -89 0
-104 -29 -77 -47 -89 0
-104 -29 -77 -56 -98 0
-104 -29 -77 -59 -98 0
-104 -29 -77 -62 -98 0
-29 -77 104 11 71 44 89 47 89 56 98 59 98 62 98 0
-104 -32 -74 -14 -68 0
-104 -32 -74 -47 -86 0
-104 -32 -74 -50 -86 0
-104 -32 -74 -59 -95 0
-104 -32 -74 -62 -95 0
-32 -74 104 14 68 47 86 50 86 59 95 62 95 0
-104 -32 -77 -14 -71 0
-104 -32 -77 -47 -89 0
-104 -32 -77 -50 -89 0
-104 -32 -77 -59 -98 0
-104 -32 -77 -62 -98 0
-32 -77 104 14 71 47 89 50 89 59 98 62 98 0
-104 -35 -74 -17 -68 0
-104 -35 -74 -50 -86 0
-104 -35 -74 -62 -95 0
-35 -74 104 17 68 50 86 62 95 0
-104 -35 -77 -17 -71 0
-104 -35 -77 -50 -89 0
-104 -35 -77 -62 -98 0
-35 -77 104 17 71 50 89 62 98 0
-107 -38 -83 -2 -68 0
-107 -38 -83 -5 -68 0
-107 -38 -83 -20 -77 0
-107 -38 -83 -23 -77 0
-107 -38 -83 -53 -95 0
-107 -38 -83 -56 -95 0
-38 -83 107 2 68 5 68 20 77 23 77 53 95 56 95 0
-107 -38 -86 -2 -71 0
-107 -38 -86 -5 -71 0
-107 -38 -86 -20 -80 0
-107 -38 -86 -23 -80 0
-107 -38 -86 -53 -98 0
-107 -38 -86 -56 -98 0
-38 -86 107 2 71 5 71 20 80 23 80 53 98 56 98 0
-107 -41 -83 -5 -68 0
-107 -41 -83 -8 -68 0
-107 -41 -83 -23 -77 0
-107 -41 -83 -26 -77 0
-107 -41 -83 -53 -95 0
-107 -41 -83 -56 -95 0
-107 -41 -83 -59 -95 0
-41 -83 107 5 68 8 68 23 77 26 77 53 95 56 95 59 95 0
-107 -41 -86 -5 -71 0
-107 -41 -86 -8 -71 0
-107 -41 -86 -23 -80 0
-107 -41 -86 -26 -80 0
-107 -41 -86 -53 -98 0
-107 -41 -86 -56 -98 0
-107 -41 -86 -59 -98 0
-41 -86 107 5 71 8 71 23 80 26 80 53 98 56 98 59 98 0
-107 -44 -83 -8 -68 0
-107 -44 -83 -11 -68 0
-107 -44 -83 -26 -77 0
-107 -44 -83 -29 -77 0
-107 -44 -83 -53 -95 0
-107 -44 -83 -56 -95 0
-107 -44 -83 -59 -95 0
-107 -44 -83 -62 -95 0
-44 -83 107 8 68 11 68 26 77 29 77 53 95 56 95 59 95 62 95 0
-107 -44 -86 -8 -71 0
-107 -44 -86 -11 -71 0
-107 -44 -86 -26 -80 0
-107 -44 -86 -29 -80 0
-107 -44 -86 -53 -98 0
-107 -44 -86 -56 -98 0
-107 -44 -86 -59 -98 0
-107 -44 -86 -62 -98 0
-44 -86 107 8 71 11 71 26 80 29 80 53 98 56 98 59 98 62 98 0
-107 -47 -83 -11 -68 0
-107 -47 -83 -14 -68 0
-107 -47 -83 -29 -77 0
-107 -47 -83 -32 -77 0
-107 -47 -83 -56 -95 0
-107 -47 -83 -59 -95 0
-107 -47 -83 -62 -95 0
-47 -83 107 11 68 14 68 29 77 32 77 56 95 59 95 62 95 0
-107 -47 -86 -11 -71 0
-107 -47 -86 -14 -71 0
-107 -47 -86 -29 -80 0
-107 -47 -86 -32 -80 0
-107 -47 -86 -56 -98 0
-107 -47 -86 -59 -98 0
-107 -47 -86 -62 -98 0
-47 -86 107 11 71 14 71 29 80 32 80 56 98 59 98 62 98 0
-107 -50 -83 -14 -68 0
-107 -50 -83 -17 -68 0
-107 -50 -83 -32 -77 0
-107 -50 -83 -35 -77 0
-107 -50 -83 -59 -95 0
-107 -50 -83 -62 -95 0
-50 -83 107 14 68 17 68 32 77 35 77 59 95 62 95 0
-107 -50 -86 -14 -71 0
-107 -50 -86 -17 -71 0
-107 -50 -86 -32 -80 0
-107 -50 -86 -35 -80 0
-107 -50 -86 -59 -98 0
-107 -50 -86 -62 -98 0
-50 -86 107 14 71 17 71 32 80 35 80 59 98 62 98 0
-110 -53 -92 -2 -68 0
-110 -53 -92 -5 -68 0
-110 -53 -92 -8 -68 0
-110 -53 -92 -20 -77 0
-110 -53 -92 -23 -77 0
-110 -53 -92 -26 -77 0
-110 -53 -92 -38 -86 0
-110 -53 -92 -41 -86 0
-110 -53 -92 -44 -86 0
-53 -92 110 2 68 5 68 8 68 20 77 23 77 26 77 38 86 41 86 44 86 0
-110 -53 -95 -2 -71 0
-110 -53 -95 -5 -71 0
-110 -53 -95 -8 -71 0
-110 -53 -95 -20 -80 0
-110 -53 -95 -23 -80 0
-110 -53 -95 -26 -80 0
-110 -53 -95 -38 -89 0
-110 -53 -95 -41 -89 0
-110 -53 -95 -44 -89 0
-53 -95 110 2 71 5 71 8 71 20 80 23 80 26 80 38 89 41 89 44 89 0
-110 -56 -92 -5 -68 0
-110 -56 -92 -8 -68 0
-110 -56 -92 -11 -68 0
-110 -56 -92 -23 -77 0
-110 -56 -92 -26 -77 0
-110 -56 -92 -29 -77 0
-110 -56 -92 -38 -86 0
-110 -56 -92 -41 -86 0
-110 -56 -92 -44 -86 0
-110 -56 -92 -47 -86 0
-56 -92 110 5 68 8 68 11 68 23 77 26 77 29 77 38 86 41 86 44 86 47 86 0
-110 -56 -95 -5 -71 0
-110 -56 -95 -8 -71 0
-110 -56 -95 -11 -71 0
-110 -56 -95 -23 -80 0
-110 -56 -95 -26 -80 0
-110 -56 -95 -29 -80 0
-110 -56 -95 -38 -89 0
-110 -56 -95 -41 -89 0
-110 -56 -95 -44 -89 0
-110 -56 -95 -47 -89 0
-56 -95 110 5 71 8 71 11 71 23 80 26 80 29 80 38 89 41 89 44 89 47 89 0
-110 -59 -92 -8 -68 0
-110 -59 -92 -11 -68 0
-110 -59 -92 -14 -68 0
-110 -59 -92 -26 -77 0
-110 -59 -92 -29 -77 0
-110 -59 -92 -32 -77 0
-110 -59 -92 -41 -86 0
-110 -59 -92 -44 -86 0
-110 -59 -92 -47 -86 0
-110 -59 -92 -50 -86 0
-59 -92 110 8 68 11 68 14 68 26 77 29 77 32 77 41 86 44 86 47 86 50 86 0
-110 -59 -95 -8 -71 0
-110 -59 -95 -11 -71 0
-110 -59 -95 -14 -71 0
-110 -59 -95 -26 -80 0
-110 -59 -95 -29 -80 0
-110 -59 -95 -32 -80 0
-110 -59 -95 -41 -89 0
-110 -59 -95 -44 -89 0
-110 -59 -95 -47 -89 0
-110 -59 -95 -50 -89 0
-59 -95 110 8 71 11 71 14 71 26 80 29 80 32 80 41 89 44 89 47 89 50 89 0
-110 -62 -92 -11 -68 0
-110 -62 -92 -14 -68 0
-110 -62 -92 -17 -68 0
-110 -62 -92 -29 -77 0
-110 -62 -92 -32 -77 0
-110 -62 -92 -35 -77 0
-110 -62 -92 -44 -86 0
-110 -62 -92 -47 -86 0
-110 -62 -92 -50 -86 0
-62 -92 110 11 68 14 68 17 68 29 77 32 77 35 77 44 86 47 86 50 86 0
-110 -62 -95 -11 -71 0
-110 -62 -95 -14 -71 0
-110 -62 -95 -17 -71 0
-110 -62 -95 -29 -80 0
-110 -62 -95 -32 -80 0
-110 -62 -95 -35 -80 0
-110 -62 -95 -44 -89 0
-110 -62 -95 -47 -89 0
-110 -62 -95 -50 -89 0
-62 -95 110 11 71 14 71 17 71 29 80 32 80 35 80 44 89 47 89 50 89 0
-102 -3 -66 -21 -78 0
-102 -3 -66 -39 -87 0
-102 -3 -66 -54 -96 0
-3 -66 102 21 78 39 87 54 96 0
-102 -3 -69 -21 -81 0
-102 -3 -69 -39 -90 0
-102 -3 -69 -54 -99 0
-3 -69 102 21 81 39 90 54 99 0
-102 -6 -66 -24 -78 0
-102 -6 -66 -39 -87 0
-102 -6 -66 -42 -87 0
-102 -6 -66 -54 -96 0
-102 -6 -66 -57 -96 0
-6 -66 102 24 78 39 87 42 87 54 96 57 96 0
-102 -6 -69 -24 -81 0
-102 -6 -69 -39 -90 0
-102 -6 -69 -42 -90 0
-102 -6 -69 -54 -99 0
-102 -6 -69 -57 -99 0
-6 -69 102 24 81 39 90 42 90 54 99 57 99 0
-102 -9 -66 -27 -78 0
-102 -9 -66 -42 -87 0
-102 -9 -66 -45 -87 0
-102 -9 -66 -54 -96 0
-102 -9 -66 -57 -96 0
-102 -9 -66 -60 -96 0
-9 -66 102 27 78 42 87 45 87 54 96 57 96 60 96 0
-102 -9 -69 -27 -81 0
-102 -9 -69 -42 -90 0
-102 -9 -69 -45 -90 0
-102 -9 -69 -54 -99 0
-102 -9 -69 -57 -99 0
-102 -9 -69 -60 -99 0
-9 -69 102 27 81 42 90 45 90 54 99 57 99 60 99 0
-102 -12 -66 -30 -78 0
-102 -12 -66 -45 -87 0
-102 -12 -66 -48 -87 0
-102 -12 -66 -57 -96 0
-102 -12 -66 -60 -96 0
-102 -12 -66 -63 -96 0
-12 -66 102 30 78 45 87 48 87 57 96 60 96 63 96 0
-102 -12 -69 -30 -81 0
-102 -12 -69 -45 -90 0
-102 -12 -69 -48 -90 0
-102 -12 -69 -57 -99 0
-102 -12 -69 -60 -99 0
-102 -12 -69 -63 -99 0
-12 -69 102 30 81 45 90 48 90 57 99 60 99 63 99 0
-102 -15 -66 -33 -78 0
-102 -15 -66 -48 -87 0
-102 -15 -66 -51 -87 0
-102 -15 -66 -60 -96 0
-102 -15 -66 -63 -96 0
-15 -66 102 33 78 48 87 51 87 60 96 63 96 0
-102 -15 -69 -33 -81 0
-102 -15 -69 -48 -90 0
-102 -15 -69 -51 -90 0
-102 -15 -69 -60 -99 0
-102 -15 -69 -63 -99 0
-15 -69 102 33 81 48 90 51 90 60 99 63 99 0
-102 -18 -66 -36 -78 0
-102 -18 -66 -51 -87 0
-102 -18 -66 -63 -96 0
-18 -66 102 36 78 51 87 63 96 0
-102 -18 -69 -36 -81 0
-102 -18 -69 -51 -90 0
-102 -18 -69 -63 -99 0
-18 -69 102 36 81 51 90 63 99 0
-105 -21 -75 -3 -69 0
-105 -21 -75 -39 -87 0
-105 -21 -75 -54 -96 0
-21 -75 105 3 69 39 87 54 96 0
-105 -21 -78 -3 -72 0
-105 -21 -78 -39 -90 0
-105 -21 -78 -54 -99 0
-21 -78 105 3 72 39 90 54 99 0
-105 -24 -75 -6 -69 0
-105 -24 -75 -39 -87 0
-105 -24 -75 -42 -87 0
-105 -24 -75 -54 -96 0
-105 -24 -75 -57 -96 0
-24 -75 105 6 69 39 87 42 87 54 96 57 96 0
-105 -24 -78 -6 -72 0
-105 -24 -78 -39 -90 0
-105 -24 -78 -42 -90 0
-105 -24 -78 -54 -99 0
-105 -24 -78 -57 -99 0
-24 -78 105 6 72 39 90 42 90 54 99 57 99 0
-105 -27 -75 -9 -69 0
-105 -27 -75 -42 -87 0
-105 -27 -75 -45 -87 0
-105 -27 -75 -54 -96 0
-105 -27 -75 -57 -96 0
-105 -27 -75 -60 -96 0
-27 -75 105 9 69 42 87 45 87 54 96 57 96 60 96 0
-105 -27 -78 -9 -72 0
-105 -27 -78 -42 -90 0
-105 -27 -78 -45 -90 0
-105 -27 -78 -54 -99 0
-105 -27 -78 -57 -99 0
-105 -27 -78 -60 -99 0
-27 -78 105 9 72 42 90 45 90 54 99 57 99 60 99 0
-105 -30 -75 -12 -69 0
-105 -30 -75 -45 -87 0
-105 -30 -75 -48 -87 0
-105 -30 -75 -57 -96 0
-105 -30 -75 -60 -96 0
-105 -30 -75 -63 -96 0
-30 -75 105 12 69 45 87 48 87 57 96 60 96 63 96 0
-105 -30 -78 -12 -72 0
-105 -30 -78 -45 -90 0
-105 -30 -78 -48 -90 0
-105 -30 -78 -57 -99 0
-105 -30 -78 -60 -99 0
-105 -30 -78 -63 -99 0
-30 -78 105 12 72 45 90 48 90 57 99 60 99 63 99 0
-105 -33 -75 -15 -69 0
-105 -33 -75 -48 -87 0
-105 -33 -75 -51 -87 0
-105 -33 -75 -60 -96 0
-105 -33 -75 -63 -96 0
-33 -75 105 15 69 48 87 51 87 60 96 63 96 0
-105 -33 -78 -15 -72 0
-105 -33 -78 -48 -90 0
-105 -33 -78 -51 -90 0
-105 -33 -78 -60 -99 0
-105 -33 -78 -63 -99 0
-33 -78 105 15 72 48 90 51 90 60 99 63 99 0
-105 -36 -75 -18 -69 0
-105 -36 -75 -51 -87 0
-105 -36 -75 -63 -96 0
-36 -75 105 18 69 51 87 63 96 0
-105 -36 -78 -18 -72 0
-105 -36 -78 -51 -90 0
-105 -36 -78 -63 -99 0
-36 -78 105 18 72 51 90 63 99 0
-108 -39 -84 -3 -69 0
-108 -39 -84 -6 -69 0
-108 -39 -84 -21 -78 0
-108 -39 -84 -24 -78 0
-108 -39 -84 -54 -96 0
-108 -39 -84 -57 -96 0
-39 -84 108 3 69 6 69 21 78 24 78 54 96 57 96 0
-108 -39 -87 -3 -72 0
-108 -39 -87 -6 -72 0
-108 -39 -87 -21 -81 0
-108 -39 -87 -24 -81 0
-108 -39 -87 -54 -99 0
-108 -39 -87 -57 -99 0
-39 -87 108 3 72 6 72 21 81 24 81 54 99 57 99 0
-108 -42 -84 -6 -69 0
-108 -42 -84 -9 -69 0
-108 -42 -84 -24 -78 0
-108 -42 -84 -27 -78 0
-108 -42 -84 -54 -96 0
-108 -42 -84 -57 -96 0
-108 -42 -84 -60 -96 0
-42 -84 108 6 69 9 69 24 78 27 78 54 96 57 96 60 96 0
-108 -42 -87 -6 -72 0
-108 -42 -87 -9 -72 0
-108 -42 -87 -24 -81 0
-108 -42 -87 -27 -81 0
-108 -42 -87 -54 -99 0
-108 -42 -87 -57 -99 0
-108 -42 -87 -60 -99 0
-42 -87 108 6 72 9 72 24 81 27 81 54 99 57 99 60 99 0
-108 -45 -84 -9 -69 0
-108 -45 -84 -12 -69 0
-108 -45 -84 -27 -78 0
-108 -45 -84 -30 -78 0
-108 -45 -84 -54 -96 0
-108 -45 -84 -57 -96 0
-108 -45 -84 -60 -96 0
-108 -45 -84 -63 -96 0
-45 -84 108 9 69 12 69 27 78 30 78 54 96 57 96 60 96 63 96 0
-108 -45 -87 -9 -72 0
-108 -45 -87 -12 -72 0
-108 -45 -87 -27 -81 0
-108 -45 -87 -30 -81 0
-108 -45 -87 -54 -99 0
-108 -45 -87 -57 -99 0
-108 -45 -87 -60 -99 0
-108 -45 -87 -63 -99 0
-45 -87 108 9 72 12 72 27 81 30 81 54 99 57 99 60 99 63 99 0
-108 -48 -84 -12 -69 0
-108 -48 -84 -15 -69 0
-108 -48 -84 -30 -78 0
-108 -48 -84 -33 -78 0
-108 -48 -84 -57 -96 0
-108 -48 -84 -60 -96 0
-108 -48 -84 -63 -96 0
-48 -84 108 12 69 15 69 30 78 33 78 57 96 60 96 63 96 0
-108 -48 -87 -12 -72 0
-108 -48 -87 -15 -72 0
-108 -48 -87 -30 -81 0
-108 -48 -87 -33 -81 0
-108 -48 -87 -57 -99 0
-108 -48 -87 -60 -99 0
-108 -48 -87 -63 -99 0
-48 -87 108 12 72 15 72 30 81 33 81 57 99 60 99 63 99 0
-108 -51 -84 -15 -69 0
-108 -51 -84 -18 -69 0
-108 -51 -84 -33 -78 0
-108 -51 -84 -36 -78 0
-108 -51 -84 -60 -96 0
-108 -51 -84 -63 -96 0
-51 -84 108 15 69 18 69 33 78 36 78 60 96 63 96 0
-108 -51 -87 -15 -72 0
-108 -51 -87 -18 -72 0
-108 -51 -87 -33 -81 0
-108 -51 -87 -36 -81 0
-108 -51 -87 -60 -99 0
-108 -51 -87 -63 -99 0
-51 -87 108 15 72 18 72 33 81 36 81 60 99 63 99 0
-111 -54 -93 -3 -69 0
-111 -54 -93 -6 -69 0
-111 -54 -93 -9 -69 0
-111 -54 -93 -21 -78 0
-111 -54 -93 -24 -78 0
-111 -54 -93 -27 -78 0
-111 -54 -93 -39 -87 0
-111 -54 -93 -42 -87 0
-111 -54 -93 -45 -87 0
-54 -93 111 3 69 6 69 9 69 21 78 24 78 27 78 39 87 42 87 45 87 0
-111 -54 -96 -3 -72 0
-111 -54 -96 -6 -72 0
-111 -54 -96 -9 -72 0
-111 -54 -96 -21 -81 0
-111 -54 -96 -24 -81 0
-111 -54 -96 -27 -81 0
-111 -54 -96 -39 -90 0
-111 -54 -96 -42 -90 0
-111 -54 -96 -45 -90 0
-54 -96 111 3 72 6 72 9 72 21 81 24 81 27 81 39 90 42 90 45 90 0
-111 -57 -93 -6 -69 0
-111 -57 -93 -9 -69 0
-111 -57 -93 -12 -69 0
-111 -57 -93 -24 -78 0
-111 -57 -93 -27 -78 0
-111 -57 -93 -30 -78 0
-111 -57 -93 -39 -87 0
-111 -57 -93 -42 -87 0
-111 -57 -93 -45 -87 0
-111 -57 -93 -48 -87 0
-57 -93 111 6 69 9 69 12 69 24 78 27 78 30 78 39 87 42 87 45 87 48 87 0
-111 -57 -96 -6 -72 0
-111 -57 -96 -9 -72 0
-111 -57 -96 -12 -72 0
-111 -57 -96 -24 -81 0
-111 -57 -96 -27 -81 0
-111 -57 -96 -30 -81 0
-111 -57 -96 -39 -90 0
-111 -57 -96 -42 -90 0
-111 -57 -96 -45 -90 0
-111 -57 -96 -48 -90 0
-57 -96 111 6 72 9 72 12 72 24 81 27 81 30 81 39 90 42 90 45 90 48 90 0
-111 -60 -93 -9 -69 0
-111 -60 -93 -12 -69 0
-111 -60 -93 -15 -69 0
-111 -60 -93 -27 -78 0
-111 -60 -93 -30 -78 0
-111 -60 -93 -33 -78 0
-111 -60 -93 -42 -87 0
-111 -60 -93 -45 -87 0
-111 -60 -93 -48 -87 0
-111 -60 -93 -51 -87 0
-60 -93 111 9 69 12 69 15 69 27 78 30 78 33 78 42 87 45 87 48 87 51 87 0
-111 -60 -96 -9 -72 0
-111 -60 -96 -12 -72 0
-111 -60 -96 -15 -72 0
-111 -60 -96 -27 -81 0
-111 -60 -96 -30 -81 0
-111 -60 -96 -33 -81 0
-111 -60 -96 -42 -90 0
-111 -60 -96 -45 -90 0
-111 -60 -96 -48 -90 0
-111 -60 -96 -51 -90 0
-60 -96 111 9 72 12 72 15 72 27 81 30 81 33 81 42 90 45 90 48 90 51 90 0
-111 -63 -93 -12 -69 0
-111 -63 -93 -15 -69 0
-111 -63 -93 -18 -69 0
-111 -63 -93 -30 -78 0
-111 -63 -93 -33 -78 0
-111 -63 -93 -36 -78 0
-111 -63 -93 -45 -87 0
-111 -63 -93 -48 -87 0
-111 -63 -93 -51 -87 0
-63 -93 111 12 69 15 69 18 69 30 78 33 78 36 78 45 87 48 87 51 87 0
-111 -63 -96 -12 -72 0
-111 -63 -96 -15 -72 0
-111 -63 -96 -18 -72 0
-111 -63 -96 -30 -81 0
-111 -63 -96 -33 -81 0
-111 -63 -96 -36 -81 0
-111 -63 -96 -45 -90 0
-111 -63 -96 -48 -90 0
-111 -63 -96 -51 -90 0
-63 -96 111 12 72 15 72 18 72 30 81 33 81 36 81 45 90 48 90 51 90 0
10 0
64 0
34 0
73 0
37 0
82 0
61 0
94 0
9 0
66 0
36 0
75 0
39 0
84 0
54 0
96 0
328 330 332 334 336 338 340 342 344 346 348 350 352 354 356 358 360 362 364 366 368 370 372 374 376 378 380 382 384 386 388 390 392 394 396 398 400 402 404 406 408 410 412 414 416 418 420 422 424 426 428 430 432 434 436 438 440 442 444 446 448 450 452 454 456 458 460 462 464 466 468 470 472 474 476 478 480 482 484 486 488 490 492 494 0
-328 -330 0
-328 -332 0
-328 -334 0
-328 -336 0
-328 -338 0
-328 -340 0
-328 -342 0
-328 -344 0
-328 -346 0
-328 -348 0
-328 -350 0
-328 -352 0
-328 -354 0
-328 -356 0
-328 -358 0
-328 -360 0
-328 -362 0
-328 -364 0
-328 -366 0
-328 -368 0
-328 -370 0
-328 -372 0
-328 -374 0
-328 -376 0
-328 -378 0
-328 -380 0
-328 -382 0
-328 -384 0
-328 -386 0
-328 -388 0
-328 -390 0
-328 -392 0
-328 -394 0
-328 -396 0
-328 -398 0
-328 -400 0
-328 -402 0
-328 -404 0
-328 -406 0
-328 -408 0
-328 -410 0
-328 -412 0
-328 -414 0
-328 -416 0
-328 -418 0
-328 -420 0
-328 -422 0
-328 -424 0
-328 -426 0
-328 -428 0
-328 -430 0
-328 -432 0
-328 -434 0
-328 -436 0
-328 -438 0
-328 -440 0
-328 -442 0
-328 -444 0
-328 -446 0
-328 -448 0
-328 -450 0
-328 -452 0
-328 -454 0
-328 -456 0
-328 -458 0
-328 -460 0
-328 -462 0
-328 -464 0
-328 -466 0
-328 -468 0
-328 -470 0
-328 -472 0
-328 -474 0
-328 -476 0
-328 -478 0
-328 -480 0
-328 -482 0
-328 -484 0
-328 -486 0
-328 -488 0
-328 -490 0
-328 -492 0
-328 -494 0
-330 -332 0
-330 -334 0
-330 -336 0
-330 -338 0
-330 -340 0
-330 -342 0
-330 -344 0
-330 -346 0
-330 -348 0
-330 -350 0
-330 -352 0
-330 -354 0
-330 -356 0
-330 -358 0
-330 -360 0
-330 -362 0
-330 -364 0
-330 -366 0
-330 -368 0
-330 -370 0
-330 -372 0
-330 -374 0
-330 -376 0
-330 -378 0
-330 -380 0
-330 -382 0
-330 -384 0
-330 -386 0
-330 -388 0
-330 -390 0
-330 -392 0
-330 -394 0
-330 -396 0
-330 -398 0
-330 -400 0
-330 -402 0
-330 -404 0
-330 -406 0
-330 -408 0
-330 -410 0
-330 -412 0
-330 -414 0
-330 -416 0
-330 -418 0
-330 -420 0
-330 -422 0
-330 -424 0
-330 -426 0
-330 -428 0
-330 -430 0
-330 -432 0
-330 -434 0
-330 -436 0
-330 -438 0
-330 -440 0
-330 -442 0
-330 -444 0
-330 -446 0
-330 -448 0
-330 -450 0
-330 -452 0
-330 -454 0
-330 -456 0
-330 -458 0
-330 -460 0
-330 -462 0
-330 -464 0
-330 -466 0
-330 -468 0
-330 -470 0
-330 -472 0
-330 -474 0
-330 -476 0
-330 -478 0
-330 -480 0
-330 -482 0
-330 -484 0
-330 -486 0
-330 -488 0
-330 -490 0
-330 -492 0
-330 -494 0
-332 -334 0
-332 -336 0
-332 -338 0
-332 -340 0
-332 -342 0
-332 -344 0
-332 -346 0
-332 -348 0
-332 -350 0
-332 -352 0
-332 -354 0
-332 -356 0
-332 -358 0
-332 -360 0
-332 -362 0
-332 -364 0
-332 -366 0
-332 -368 0
-332 -370 0
-332 -372 0
-332 -374 0
-332 -376 0
-332 -378 0
-332 -380 0
-332 -382 0
-332 -384 0
-332 -386 0
-332 -388 0
-332 -390 0
-332 -392 0
-332 -394 0
-332 -396 0
-332 -398 0
-332 -400 0
-332 -402 0
-332 -404 0
-332 -406 0
-332 -408 0
-332 -410 0
-332 -412 0
-332 -414 0
-332 -416 0
-332 -418 0
-332 -420 0
-332 -422 0
-332 -424 0
-332 -426 0
-332 -428 0
-332 -430 0
-332 -432 0
-332 -434 0
-332 -436 0
-332 -438 0
-332 -440 0
-332 -442 0
-332 -444 0
-332 -446 0
-332 -448 0
-332 -450 0
-332 -452 0
-332 -454 0
-332 -456 0
-332 -458 0
-332 -460 0
-332 -462 0
-332 -464 0
-332 -466 0
-332 -468 0
-332 -470 0
-332 -472 0
-332 -474 0
-332 -476 0
-332 -478 0
-332 -480 0
-332 -482 0
-332 -484 0
-332 -486 0
-332 -488 0
-332 -490 0
-332 -492 0
-332 -494 0
-334 -336 0
-334 -338 0
-334 -340 0
-334 -342 0
-334 -344 0
-334 -346 0
-334 -348 0
-334 -350 0
-334 -352 0
-334 -354 0
-334 -356 0
-334 -358 0
-334 -360 0
-334 -362 0
-334 -364 0
-334 -366 0
-334 -368 0
-334 -370 0
-334 -372 0
-334 -374 0
-334 -376 0
-334 -378 0
-334 -380 0
-334 -382 0
-334 -384 0
-334 -386 0
-334 -388 0
-334 -390 0
-334 -392 0
-334 -394 0
-334 -396 0
-334 -398 0
-334 -400 0
-334 -402 0
-334 -404 0
-334 -406 0
-334 -408 0
-334 -410 0
-334 -412 0
-334 -414 0
-334 -416 0
-334 -418 0
-334 -420 0
-334 -422 0
-334 -424 0
-334 -426 0
-334 -428 0
-334 -430 0
-334 -432 0
-334 -434 0
-334 -436 0
-334 -438 0
-334 -440 0
-334 -442 0
-334 -444 0
-334 -446 0
-334 -448 0
-334 -450 0
-334 -452 0
-334 -454 0
-334 -456 0
-334 -458 0
-334 -460 0
-334 -462 0
-334 -464 0
-334 -466 0
-334 -468 0
-334 -470 0
-334 -472 0
-334 -474 0
-334 -476 0
-334 -478 0
-334 -480 0
-334 -482 0
-334 -484 0
-334 -486 0
-334 -488 0
-334 -490 0
-334 -492 0
-334 -494 0
-336 -338 0
-336 -340 0
-336 -342 0
-336 -344 0
-336 -346 0
-336 -348 0
-336 -350 0
-336 -352 0
-336 -354 0
-336 -356 0
-336 -358 0
-336 -360 0
-336 -362 0
-336 -364 0
-336 -366 0
-336 -368 0
-336 -370 0
-336 -372 0
-336 -374 0
-336 -376 0
-336 -378 0
-336 -380 0
-336 -382 0
-336 -384 0
-336 -386 0
-336 -388 0
-336 -390 0
-336 -392 0
-336 -394 0
-336 -396 0
-336 -398 0
-336 -400 0
-336 -402 0
-336 -404 0
-336 -406 0
-336 -408 0
-336 -410 0
-336 -412 0
-336 -414 0
-336 -416 0
-336 -418 0
-336 -420 0
-336 -422 0
-336 -424 0
-336 -426 0
-336 -428 0
-336 -430 0
-336 -432 0
-336 -434 0
-336 -436 0
-336 -438 0
-336 -440 0
-336 -442 0
-336 -444 0
-336 -446 0
-336 -448 0
-336 -450 0
-336 -452 0
-336 -454 0
-336 -456 0
-336 -458 0
-336 -460 0
-336 -462 0
-336 -464 0
-336 -466 0
-336 -468 0
-336 -470 0
-336 -472 0
-336 -474 0
-336 -476 0
-336 -478 0
-336 -480 0
-336 -482 0
-336 -484 0
-336 -486 0
-336 -488 0
-336 -490 0
-336 -492 0
-336 -494 0
-338 -340 0
-338 -342 0
-338 -344 0
-338 -346 0
-338 -348 0
-338 -350 0
-338 -352 0
-338 -354 0
-338 -356 0
-338 -358 0
-338 -360 0
-338 -362 0
-338 -364 0
-338 -366 0
-338 -368 0
-338 -370 0
-338 -372 0
-338 -374 0
-338 -376 0
-338 -378 0
-338 -380 0
-338 -382 0
-338 -384 0
-338 -386 0
-338 -388 0
-338 -390 0
-338 -392 0
-338 -394 0
-338 -396 0
-338 -398 0
-338 -400 0
-338 -402 0
-338 -404 0
-338 -406 0
-338 -408 0
-338 -410 0
-338 -412 0
-338 -414 0
-338 -416 0
-338 -418 0
-338 -420 0
-338 -422 0
-338 -424 0
-338 -426 0
-338 -428 0
-338 -430 0
-338 -432 0
-338 -434 0
-338 -436 0
-338 -438 0
-338 -440 0
-338 -442 0
-338 -444 0
-338 -446 0
-338 -448 0
-338 -450 0
-338 -452 0
-338 -454 0
-338 -456 0
-338 -458 0
-338 -460 0
-338 -462 0
-338 -464 0
-338 -466 0
-338 -468 0
-338 -470 0
-338 -472 0
-338 -474 0
-338 -476 0
-338 -478 0
-338 -480 0
-338 -482 0
-338 -484 0
-338 -486 0
-338 -488 0
-338 -490 0
-338 -492 0
-338 -494 0
-340 -342 0
-340 -344 0
-340 -346 0
-340 -348 0
-340 -350 0
-340 -352 0
-340 -354 0
-340 -356 0
-340 -358 0
-340 -360 0
-340 -362 0
-340 -364 0
-340 -366 0
-340 -368 0
-340 -370 0
-340 -372 0
-340 -374 0
-340 -376 0
-340 -378 0
-340 -380 0
-340 -382 0
-340 -384 0
-340 -386 0
-340 -388 0
-340 -390 0
-340 -392 0
-340 -394 0
-340 -396 0
-340 -398 0
-340 -400 0
-340 -402 0
-340 -404 0
-340 -406 0
-340 -408 0
-340 -410 0
-340 -412 0
-340 -414 0
-340 -416 0
-340 -418 0
-340 -420 0
-340 -422 0
-340 -424 0
-340 -426 0
-340 -428 0
-340 -430 0
-340 -432 0
-340 -434 0
-340 -436 0
-340 -438 0
-340 -440 0
-340 -442 0
-340 -444 0
-340 -446 0
-340 -448 0
-340 -450 0
-340 -452 0
-340 -454 0
-340 -456 0
-340 -458 0
-340 -460 0
-340 -462 0
-340 -464 0
-340 -466 0
-340 -468 0
-340 -470 0
-340 -472 0
-340 -474 0
-340 -476 0
-340 -478 0
-340 -480 0
-340 -482 0
-340 -484 0
-340 -486 0
-340 -488 0
-340 -490 0
-340 -492 0
-340 -494 0
-342 -344 0
-342 -346 0
-342 -348 0
-342 -350 0
-342 -352 0
-342 -354 0
-342 -356 0
-342 -358 0
-342 -360 0
-342 -362 0
-342 -364 0
-342 -366 0
-342 -368 0
-342 -370 0
-342 -372 0
-342 -374 0
-342 -376 0
-342 -378 0
-342 -380 0
-342 -382 0
-342 -384 0
-342 -386 0
-342 -388 0
-342 -390 0
-342 -392 0
-342 -394 0
-342 -396 0
-342 -398 0
-342 -400 0
-342 -402 0
-342 -404 0
-342 -406 0
-342 -408 0
-342 -410 0
-342 -412 0
-342 -414 0
-342 -416 0
-342 -418 0
-342 -420 0
-342 -422 0
-342 -424 0
-342 -426 0
-342 -428 0
-342 -430 0
-342 -432 0
-342 -434 0
-342 -436 0
-342 -438 0
-342 -440 0
-342 -442 0
-342 -444 0
-342 -446 0
-342 -448 0
-342 -450 0
-342 -452 0
-342 -454 0
-342 -456 0
-342 -458 0
-342 -460 0
-342 -462 0
-342 -464 0
-342 -466 0
-342 -468 0
-342 -470 0
-342 -472 0
-342 -474 0
-342 -476 0
-342 -478 0
-342 -480 0
-342 -482 0
-342 -484 0
-342 -486 0
-342 -488 0
-342 -490 0
-342 -492 0
-342 -494 0
-344 -346 0
-344 -348 0
-344 -350 0
-344 -352 0
-344 -354 0
-344 -356 0
-344 -358 0
-344 -360 0
-344 -362 0
-344 -364 0
-344 -366 0
-344 -368 0
-344 -370 0
-344 -372 0
-344 -374 0
-344 -376 0
-344 -378 0
-344 -380 0
-344 -382 0
-344 -384 0
-344 -386 0
-344 -388 0
-344 -390 0
-344 -392 0
-344 -394 0
-344 -396 0
-344 -398 0
-344 -400 0
-344 -402 0
-344 -404 0
-344 -406 0
-344 -408 0
-344 -410 0
-344 -412 0
-344 -414 0
-344 -416 0
-344 -418 0
-344 -420 0
-344 -422 0
-344 -424 0
-344 -426 0
-344 -428 0
-344 -430 0
-344 -432 0
-344 -434 0
-344 -436 0
-344 -438 0
-344 -440 0
-344 -442 0
-344 -444 0
-344 -446 0
-344 -448 0
-344 -450 0
-344 -452 0
-344 -454 0
-344 -456 0
-344 -458 0
-344 -460 0
-344 -462 0
-344 -464 0
-344 -466 0
-344 -468 0
-344 -470 0
-344 -472 0
-344 -474 0
-344 -476 0
-344 -478 0
-344 -480 0
-344 -482 0
-344 -484 0
-344 -486 0
-344 -488 0
-344 -490 0
-344 -492 0
-344 -494 0
-346 -348 0
-346 -350 0
-346 -352 0
-346 -354 0
-346 -356 0
-346 -358 0
-346 -360 0
-346 -362 0
-346 -364 0
-346 -366 0
-346 -368 0
-346 -370 0
-346 -372 0
-346 -374 0
-346 -376 0
-346 -378 0
-346 -380 0
-346 -382 0
-346 -384 0
-346 -386 0
-346 -388 0
-346 -390 0
-346 -392 0
-346 -394 0
-346 -396 0
-346 -398 0
-346 -400 0
-346 -402 0
-346 -404 0
-346 -406 0
-346 -408 0
-346 -410 0
-346 -412 0
-346 -414 0
-346 -416 0
-346 -418 0
-346 -420 0
-346 -422 0
-346 -424 0
-346 -426 0
-346 -428 0
-346 -430 0
-346 -432 0
-346 -434 0
-346 -436 0
-346 -438 0
-346 -440 0
-346 -442 0
-346 -444 0
-346 -446 0
-346 -448 0
-346 -450 0
-346 -452 0
-346 -454 0
-346 -456 0
-346 -458 0
-346 -460 0
-346 -462 0
-346 -464 0
-346 -466 0
-346 -468 0
-346 -470 0
-346 -472 0
-346 -474 0
-346 -476 0
-346 -478 0
-346 -480 0
-346 -482 0
-346 -484 0
-346 -486 0
-346 -488 0
-346 -490 0
-346 -492 0
-346 -494 0
-348 -350 0
-348 -352 0
-348 -354 0
-348 -356 0
-348 -358 0
-348 -360 0
-348 -362 0
-348 -364 0
-348 -366 0
-348 -368 0
-348 -370 0
-348 -372 0
-348 -374 0
-348 -376 0
-348 -378 0
-348 -380 0
-348 -382 0
-348 -384 0
-348 -386 0
-348 -388 0
-348 -390 0
-348 -392 0
-348 -394 0
-348 -396 0
-348 -398 0
-348 -400 0
-348 -402 0
-348 -404 0
-348 -406 0
-348 -408 0
-348 -410 0
-348 -412 0
-348 -414 0
-348 -416 0
-348 -418 0
-348 -420 0
-348 -422 0
-348 -424 0
-348 -426 0
-348 -428 0
-348 -430 0
-348 -432 0
-348 -434 0
-348 -436 0
-348 -438 0
-348 -440 0
-348 -442 0
-348 -444 0
-348 -446 0
-348 -448 0
-348 -450 0
-348 -452 0
-348 -454 0
-348 -456 0
-348 -458 0
-348 -460 0
-348 -462 0
-348 -464 0
-348 -466 0
-348 -468 0
-348 -470 0
-348 -472 0
-348 -474 0
-348 -476 0
-348 -478 0
-348 -480 0
-348 -482 0
-348 -484 0
-348 -486 0
-348 -488 0
-348 -490 0
-348 -492 0
-348 -494 0
-350 -352 0
-350 -354 0
-350 -356 0
-350 -358 0
-350 -360 0
-350 -362 0
-350 -364 0
-350 -366 0
-350 -368 0
-350 -370 0
-350 -372 0
-350 -374 0
-350 -376 0
-350 -378 0
-350 -380 0
-350 -382 0
-350 -384 0
-350 -386 0
-350 -388 0
-350 -390 0
-350 -392 0
-350 -394 0
-350 -396 0
-350 -398 0
-350 -400 0
-350 -402 0
-350 -404 0
-350 -406 0
-350 -408 0
-350 -410 0
-350 -412 0
-350 -414 0
-350 -416 0
-350 -418 0
-350 -420 0
-350 -422 0
-350 -424 0
-350 -426 0
-350 -428 0
-350 -430 0
-350 -432 0
-350 -434 0
-350 -436 0
-350 -438 0
-350 -440 0
-350 -442 0
-350 -444 0
-350 -446 0
-350 -448 0
-350 -450 0
-350 -452 0
-350 -454 0
-350 -456 0
-350 -458 0
-350 -460 0
-350 -462 0
-350 -464 0
-350 -466 0
-350 -468 0
-350 -470 0
-350 -472 0
-350 -474 0
-350 -476 0
-350 -478 0
-350 -480 0
-350 -482 0
-350 -484 0
-350 -486 0
-350 -488 0
-350 -490 0
-350 -492 0
-350 -494 0
-352 -354 0
-352 -356 0
-352 -358 0
-352 -360 0
-352 -362 0
-352 -364 0
-352 -366 0
-352 -368 0
-352 -370 0
-352 -372 0
-352 -374 0
-352 -376 0
-352 -378 0
-352 -380 0
-352 -382 0
-352 -384 0
-352 -386 0
-352 -388 0
-352 -390 0
-352 -392 0
-352 -394 0
-352 -396 0
-352 -398 0
-352 -400 0
-352 -402 0
-352 -404 0
-352 -406 0
-352 -408 0
-352 -410 0
-352 -412 0
-352 -414 0
-352 -416 0
-352 -418 0
-352 -420 0
-352 -422 0
-352 -424 0
-352 -426 0
-352 -428 0
-352 -430 0
-352 -432 0
-352 -434 0
-352 -436 0
-352 -438 0
-352 -440 0
-352 -442 0
-352 -444 0
-352 -446 0
-352 -448 0
-352 -450 0
-352 -452 0
-352 -454 0
-352 -456 0
-352 -458 0
-352 -460 0
-352 -462 0
-352 -464 0
-352 -466 0
-352 -468 0
-352 -470 0
-352 -472 0
-352 -474 0
-352 -476 0
-352 -478 0
-352 -480 0
-352 -482 0
-352 -484 0
-352 -486 0
-352 -488 0
-352 -490 0
-352 -492 0
-352 -494 0
-354 -356 0
-354 -358 0
-354 -360 0
-354 -362 0
-354 -364 0
-354 -366 0
-354 -368 0
-354 -370 0
-354 -372 0
-354 -374 0
-354 -376 0
-354 -378 0
-354 -380 0
-354 -382 0
-354 -384 0
-354 -386 0
-354 -388 0
-354 -390 0
-354 -392 0
-354 -394 0
-354 -396 0
-354 -398 0
-354 -400 0
-354 -402 0
-354 -404 0
-354 -406 0
-354 -408 0
-354 -410 0
-354 -412 0
-354 -414 0
-354 -416 0
-354 -418 0
-354 -420 0
-354 -422 0
-354 -424 0
-354 -426 0
-354 -428 0
-354 -430 0
-354 -432 0
-354 -434 0
-354 -436 0
-354 -438 0
-354 -440 0
-354 -442 0
-354 -444 0
-354 -446 0
-354 -448 0
-354 -450 0
-354 -452 0
-354 -454 0
-354 -456 0
-354 -458 0
-354 -460 0
-354 -462 0
-354 -464 0
-354 -466 0
-354 -468 0
-354 -470 0
-354 -472 0
-354 -474 0
-354 -476 0
-354 -478 0
-354 -480 0
-354 -482 0
-354 -484 0
-354 -486 0
-354 -488 0
-354 -490 0
-354 -492 0
-354 -494 0
-356 -358 0
-356 -360 0
-356 -362 0
-356 -364 0
-356 -366 0
-356 -368 0
-356 -370 0
-356 -372 0
-356 -374 0
-356 -376 0
-356 -378 0
-356 -380 0
-356 -382 0
-356 -384 0
-356 -386 0
-356 -388 0
-356 -390 0
-356 -392 0
-356 -394 0
-356 -396 0
-356 -398 0
-356 -400 0
-356 -402 0
-356 -404 0
-356 -406 0
-356 -408 0
-356 -410 0
-356 -412 0
-356 -414 0
-356 -416 0
-356 -418 0
-356 -420 0
-356 -422 0
-356 -424 0
-356 -426 0
-356 -428 0
-356 -430 0
-356 -432 0
-356 -434 0
-356 -436 0
-356 -438 0
-356 -440 0
-356 -442 0
-356 -444 0
-356 -446 0
-356 -448 0
-356 -450 0
-356 -452 0
-356 -454 0
-356 -456 0
-356 -458 0
-356 -460 0
-356 -462 0
-356 -464 0
-356 -466 0
-356 -468 0
-356 -470 0
-356 -472 0
-356 -474 0
-356 -476 0
-356 -478 0
-356 -480 0
-356 -482 0
-356 -484 0
-356 -486 0
-356 -488 0
-356 -490 0
-356 -492 0
-356 -494 0
-358 -360 0
-358 -362 0
-358 -364 0
-358 -366 0
-358 -368 0
-358 -370 0
-358 -372 0
-358 -374 0
-358 -376 0
-358 -378 0
-358 -380 0
-358 -382 0
-358 -384 0
-358 -386 0
-358 -388 0
-358 -390 0
-358 -392 0
-358 -394 0
-358 -396 0
-358 -398 0
-358 -400 0
-358 -402 0
-358 -404 0
-358 -406 0
-358 -408 0
-358 -410 0
-358 -412 0
-358 -414 0
-358 -416 0
-358 -418 0
-358 -420 0
-358 -422 0
-358 -424 0
-358 -426 0
-358 -428 0
-358 -430 0
-358 -432 0
-358 -434 0
-358 -436 0
-358 -438 0
-358 -440 0
-358 -442 0
-358 -444 0
-358 -446 0
-358 -448 0
-358 -450 0
-358 -452 0
-358 -454 0
-358 -456 0
-358 -458 0
-358 -460 0
-358 -462 0
-358 -464 0
-358 -466 0
-358 -468 0
-358 -470 0
-358 -472 0
-358 -474 0
-358 -476 0
-358 -478 0
-358 -480 0
-358 -482 0
-358 -484 0
-358 -486 0
-358 -488 0
-358 -490 0
-358 -492 0
-358 -494 0
-360 -362 0
-360 -364 0
-360 -366 0
-360 -368 0
-360 -370 0
-360 -372 0
-360 -374 0
-360 -376 0
-360 -378 0
-360 -380 0
-360 -382 0
-360 -384 0
-360 -386 0
-360 -388 0
-360 -390 0
-360 -392 0
-360 -394 0
-360 -396 0
-360 -398 0
-360 -400 0
-360 -402 0
-360 -404 0
-360 -406 0
-360 -408 0
-360 -410 0
-360 -412 0
-360 -414 0
-360 -416 0
-360 -418 0
-360 -420 0
-360 -422 0
-360 -424 0
-360 -426 0
-360 -428 0
-360 -430 0
-360 -432 0
-360 -434 0
-360 -436 0
-360 -438 0
-360 -440 0
-360 -442 0
-360 -444 0
-360 -446 0
-360 -448 0
-360 -450 0
-360 -452 0
-360 -454 0
-360 -456 0
-360 -458 0
-360 -460 0
-360 -462 0
-360 -464 0
-360 -466 0
-360 -468 0
-360 -470 0
-360 -472 0
-360 -474 0
-360 -476 0
-360 -478 0
-360 -480 0
-360 -482 0
-360 -484 0
-360 -486 0
-360 -488 0
-360 -490 0
-360 -492 0
-360 -494 0
-362 -364 0
-362 -366 0
-362 -368 0
-362 -370 0
-362 -372 0
-362 -374 0
-362 -376 0
-362 -378 0
-362 -380 0
-362 -382 0
-362 -384 0
-362 -386 0
-362 -388 0
-362 -390 0
-362 -392 0
-362 -394 0
-362 -396 0
-362 -398 0
-362 -400 0
-362 -402 0
-362 -404 0
-362 -406 0
-362 -408 0
-362 -410 0
-362 -412 0
-362 -414 0
-362 -416 0
-362 -418 0
-362 -420 0
-362 -422 0
-362 -424 0
-362 -426 0
-362 -428 0
-362 -430 0
-362 -432 0
-362 -434 0
-362 -436 0
-362 -438 0
-362 -440 0
-362 -442 0
-362 -444 0
-362 -446 0
-362 -448 0
-362 -450 0
-362 -452 0
-362 -454 0
-362 -456 0
-362 -458 0
-362 -460 0
-362 -462 0
-362 -464 0
-362 -466 0
-362 -468 0
-362 -470 0
-362 -472 0
-362 -474 0
-362 -476 0
-362 -478 0
-362 -480 0
-362 -482 0
-362 -484 0
-362 -486 0
-362 -488 0
-362 -490 0
-362 -492 0
-362 -494 0
-364 -366 0
-364 -368 0
-364 -370 0
-364 -372 0
-364 -374 0
-364 -376 0
-364 -378 0
-364 -380 0
-364 -382 0
-364 -384 0
-364 -386 0
-364 -388 0
-364 -390 0
-364 -392 0
-364 -394 0
-364 -396 0
-364 -398 0
-364 -400 0
-364 -402 0
-364 -404 0
-364 -406 0
-364 -408 0
-364 -410 0
-364 -412 0
-364 -414 0
-364 -416 0
-364 -418 0
-364 -420 0
-364 -422 0
-364 -424 0
-364 -426 0
-364 -428 0
-364 -430 0
-364 -432 0
-364 -434 0
-364 -436 0
-364 -438 0
-364 -440 0
-364 -442 0
-364 -444 0
-364 -446 0
-364 -448 0
-364 -450 0
-364 -452 0
-364 -454 0
-364 -456 0
-364 -458 0
-364 -460 0
-364 -462 0
-364 -464 0
-364 -466 0
-364 -468 0
-364 -470 0
-364 -472 0
-364 -474 0
-364 -476 0
-364 -478 0
-364 -480 0
-364 -482 0
-364 -484 0
-364 -486 0
-364 -488 0
-364 -490 0
-364 -492 0
-364 -494 0
-366 -368 0
-366 -370 0
-366 -372 0
-366 -374 0
-366 -376 0
-366 -378 0
-366 -380 0
-366 -382 0
-366 -384 0
-366 -386 0
-366 -388 0
-366 -390 0
-366 -392 0
-366 -394 0
-366 -396 0
-366 -398 0
-366 -400 0
-366 -402 0
-366 -404 0
-366 -406 0
-366 -408 0
-366 -410 0
-366 -412 0
-366 -414 0
-366 -416 0
-366 -418 0
-366 -420 0
-366 -422 0
-366 -424 0
-366 -426 0
-366 -428 0
-366 -430 0
-366 -432 0
-366 -434 0
-366 -436 0
-366 -438 0
-366 -440 0
-366 -442 0
-366 -444 0
-366 -446 0
-366 -448 0
-366 -450 0
-366 -452 0
-366 -454 0
-366 -456 0
-366 -458 0
-366 -460 0
-366 -462 0
-366 -464 0
-366 -466 0
-366 -468 0
-366 -470 0
-366 -472 0
-366 -474 0
-366 -476 0
-366 -478 0
-366 -480 0
-366 -482 0
-366 -484 0
-366 -486 0
-366 -488 0
-366 -490 0
-366 -492 0
-366 -494 0
-368 -370 0
-368 -372 0
-368 -374 0
-368 -376 0
-368 -378 0
-368 -380 0
-368 -382 0
-368 -384 0
-368 -386 0
-368 -388 0
-368 -390 0
-368 -392 0
-368 -394 0
-368 -396 0
-368 -398 0
-368 -400 0
-368 -402 0
-368 -404 0
-368 -406 0
-368 -408 0
-368 -410 0
-368 -412 0
-368 -414 0
-368 -416 0
-368 -418 0
-368 -420 0
-368 -422 0
-368 -424 0
-368 -426 0
-368 -428 0
-368 -430 0
-368 -432 0
-368 -434 0
-368 -436 0
-368 -438 0
-368 -440 0
-368 -442 0
-368 -444 0
-368 -446 0
-368 -448 0
-368 -450 0
-368 -452 0
-368 -454 0
-368 -456 0
-368 -458 0
-368 -460 0
-368 -462 0
-368 -464 0
-368 -466 0
-368 -468 0
-368 -470 0
-368 -472 0
-368 -474 0
-368 -476 0
-368 -478 0
-368 -480 0
-368 -482 0
-368 -484 0
-368 -486 0
-368 -488 0
-368 -490 0
-368 -492 0
-368 -494 0
-370 -372 0
-370 -374 0
-370 -376 0
-370 -378 0
-370 -380 0
-370 -382 0
-370 -384 0
-370 -386 0
-370 -388 0
-370 -390 0
-370 -392 0
-370 -394 0
-370 -396 0
-370 -398 0
-370 -400 0
-370 -402 0
-370 -404 0
-370 -406 0
-370 -408 0
-370 -410 0
-370 -412 0
-370 -414 0
-370 -416 0
-370 -418 0
-370 -420 0
-370 -422 0
-370 -424 0
-370 -426 0
-370 -428 0
-370 -430 0
-370 -432 0
-370 -434 0
-370 -436 0
-370 -438 0
-370 -440 0
-370 -442 0
-370 -444 0
-370 -446 0
-370 -448 0
-370 -450 0
-370 -452 0
-370 -454 0
-370 -456 0
-370 -458 0
-370 -460 0
-370 -462 0
-370 -464 0
-370 -466 0
-370 -468 0
-370 -470 0
-370 -472 0
-370 -474 0
-370 -476 0
-370 -478 0
-370 -480 0
-370 -482 0
-370 -484 0
-370 -486 0
-370 -488 0
-370 -490 0
-370 -492 0
-370 -494 0
-372 -374 0
-372 -376 0
-372 -378 0
-372 -380 0
-372 -382 0
-372 -384 0
-372 -386 0
-372 -388 0
-372 -390 0
-372 -392 0
-372 -394 0
-372 -396 0
-372 -398 0
-372 -400 0
-372 -402 0
-372 -404 0
-372 -406 0
-372 -408 0
-372 -410 0
-372 -412 0
-372 -414 0
-372 -416 0
-372 -418 0
-372 -420 0
-372 -422 0
-372 -424 0
-372 -426 0
-372 -428 0
-372 -430 0
-372 -432 0
-372 -434 0
-372 -436 0
-372 -438 0
-372 -440 0
-372 -442 0
-372 -444 0
-372 -446 0
-372 -448 0
-372 -450 0
-372 -452 0
-372 -454 0
-372 -456 0
-372 -458 0
-372 -460 0
-372 -462 0
-372 -464 0
-372 -466 0
-372 -468 0
-372 -470 0
-372 -472 0
-372 -474 0
-372 -476 0
-372 -478 0
-372 -480 0
-372 -482 0
-372 -484 0
-372 -486 0
-372 -488 0
-372 -490 0
-372 -492 0
-372 -494 0
-374 -376 0
-374 -378 0
-374 -380 0
-374 -382 0
-374 -384 0
-374 -386 0
-374 -388 0
-374 -390 0
-374 -392 0
-374 -394 0
-374 -396 0
-374 -398 0
-374 -400 0
-374 -402 0
-374 -404 0
-374 -406 0
-374 -408 0
-374 -410 0
-374 -412 0
-374 -414 0
-374 -416 0
-374 -418 0
-374 -420 0
-374 -422 0
-374 -424 0
-374 -426 0
-374 -428 0
-374 -430 0
-374 -432 0
-374 -434 0
-374 -436 0
-374 -438 0
-374 -440 0
-374 -442 0
-374 -444 0
-374 -446 0
-374 -448 0
-374 -450 0
-374 -452 0
-374 -454 0
-374 -456 0
-374 -458 0
-374 -460 0
-374 -462 0
-374 -464 0
-374 -466 0
-374 -468 0
-374 -470 0
-374 -472 0
-374 -474 0
-374 -476 0
-374 -478 0
-374 -480 0
-374 -482 0
-374 -484 0
-374 -486 0
-374 -488 0
-374 -490 0
-374 -492 0
-374 -494 0
-376 -378 0
-376 -380 0
-376 -382 0
-376 -384 0
-376 -386 0
-376 -388 0
-376 -390 0
-376 -392 0
-376 -394 0
-376 -396 0
-376 -398 0
-376 -400 0
-376 -402 0
-376 -404 0
-376 -406 0
-376 -408 0
-376 -410 0
-376 -412 0
-376 -414 0
-376 -416 0
-376 -418 0
-376 -420 0
-376 -422 0
-376 -424 0
-376 -426 0
-376 -428 0
-376 -430 0
-376 -432 0
-376 -434 0
-376 -436 0
-376 -438 0
-376 -440 0
-376 -442 0
-376 -444 0
-376 -446 0
-376 -448 0
-376 -450 0
-376 -452 0
-376 -454 0
-376 -456 0
-376 -458 0
-376 -460 0
-376 -462 0
-376 -464 0
-376 -466 0
-376 -468 0
-376 -470 0
-376 -472 0
-376 -474 0
-376 -476 0
-376 -478 0
-376 -480 0
-376 -482 0
-376 -484 0
-376 -486 0
-376 -488 0
-376 -490 0
-376 -492 0
-376 -494 0
-378 -380 0
-378 -382 0
-378 -384 0
-378 -386 0
-378 -388 0
-378 -390 0
-378 -392 0
-378 -394 0
-378 -396 0
-378 -398 0
-378 -400 0
-378 -402 0
-378 -404 0
-378 -406 0
-378 -408 0
-378 -410 0
-378 -412 0
-378 -414 0
-378 -416 0
-378 -418 0
-378 -420 0
-378 -422 0
-378 -424 0
-378 -426 0
-378 -428 0
-378 -430 0
-378 -432 0
-378 -434 0
-378 -436 0
-378 -438 0
-378 -440 0
-378 -442 0
-378 -444 0
-378 -446 0
-378 -448 0
-378 -450 0
-378 -452 0
-378 -454 0
-378 -456 0
-378 -458 0
-378 -460 0
-378 -462 0
-378 -464 0
-378 -466 0
-378 -468 0
-378 -470 0
-378 -472 0
-378 -474 0
-378 -476 0
-378 -478 0
-378 -480 0
-378 -482 0
-378 -484 0
-378 -486 0
-378 -488 0
-378 -490 0
-378 -492 0
-378 -494 0
-380 -382 0
-380 -384 0
-380 -386 0
-380 -388 0
-380 -390 0
-380 -392 0
-380 -394 0
-380 -396 0
-380 -398 0
-380 -400 0
-380 -402 0
-380 -404 0
-380 -406 0
-380 -408 0
-380 -410 0
-380 -412 0
-380 -414 0
-380 -416 0
-380 -418 0
-380 -420 0
-380 -422 0
-380 -424 0
-380 -426 0
-380 -428 0
-380 -430 0
-380 -432 0
-380 -434 0
-380 -436 0
-380 -438 0
-380 -440 0
-380 -442 0
-380 -444 0
-380 -446 0
-380 -448 0
-380 -450 0
-380 -452 0
-380 -454 0
-380 -456 0
-380 -458 0
-380 -460 0
-380 -462 0
-380 -464 0
-380 -466 0
-380 -468 0
-380 -470 0
-380 -472 0
-380 -474 0
-380 -476 0
-380 -478 0
-380 -480 0
-380 -482 0
-380 -484 0
-380 -486 0
-380 -488 0
-380 -490 0
-380 -492 0
-380 -494 0
-382 -384 0
-382 -386 0
-382 -388 0
-382 -390 0
-382 -392 0
-382 -394 0
-382 -396 0
-382 -398 0
-382 -400 0
-382 -402 0
-382 -404 0
-382 -406 0
-382 -408 0
-382 -410 0
-382 -412 0
-382 -414 0
-382 -416 0
-382 -418 0
-382 -420 0
-382 -422 0
-382 -424 0
-382 -426 0
-382 -428 0
-382 -430 0
-382 -432 0
-382 -434 0
-382 -436 0
-382 -438 0
-382 -440 0
-382 -442 0
-382 -444 0
-382 -446 0
-382 -448 0
-382 -450 0
-382 -452 0
-382 -454 0
-382 -456 0
-382 -458 0
-382 -460 0
-382 -462 0
-382 -464 0
-382 -466 0
-382 -468 0
-382 -470 0
-382 -472 0
-382 -474 0
-382 -476 0
-382 -478 0
-382 -480 0
-382 -482 0
-382 -484 0
-382 -486 0
-382 -488 0
-382 -490 0
-382 -492 0
-382 -494 0
-384 -386 0
-384 -388 0
-384 -390 0
-384 -392 0
-384 -394 0
-384 -396 0
-384 -398 0
-384 -400 0
-384 -402 0
-384 -404 0
-384 -406 0
-384 -408 0
-384 -410 0
-384 -412 0
-384 -414 0
-384 -416 0
-384 -418 0
-384 -420 0
-384 -422 0
-384 -424 0
-384 -426 0
-384 -428 0
-384 -430 0
-384 -432 0
-384 -434 0
-384 -436 0
-384 -438 0
-384 -440 0
-384 -442 0
-384 -444 0
-384 -446 0
-384 -448 0
-384 -450 0
-384 -452 0
-384 -454 0
-384 -456 0
-384 -458 0
-384 -460 0
-384 -462 0
-384 -464 0
-384 -466 0
-384 -468 0
-384 -470 0
-384 -472 0
-384 -474 0
-384 -476 0
-384 -478 0
-384 -480 0
-384 -482 0
-384 -484 0
-384 -486 0
-384 -488 0
-384 -490 0
-384 -492 0
-384 -494 0
-386 -388 0
-386 -390 0
-386 -392 0
-386 -394 0
-386 -396 0
-386 -398 0
-386 -400 0
-386 -402 0
-386 -404 0
-386 -406 0
-386 -408 0
-386 -410 0
-386 -412 0
-386 -414 0
-386 -416 0
-386 -418 0
-386 -420 0
-386 -422 0
-386 -424 0
-386 -426 0
-386 -428 0
-386 -430 0
-386 -432 0
-386 -434 0
-386 -436 0
-386 -438 0
-386 -440 0
-386 -442 0
-386 -444 0
-386 -446 0
-386 -448 0
-386 -450 0
-386 -452 0
-386 -454 0
-386 -456 0
-386 -458 0
-386 -460 0
-386 -462 0
-386 -464 0
-386 -466 0
-386 -468 0
-386 -470 0
-386 -472 0
-386 -474 0
-386 -476 0
-386 -478 0
-386 -480 0
-386 -482 0
-386 -484 0
-386 -486 0
-386 -488 0
-386 -490 0
-386 -492 0
-386 -494 0
-388 -390 0
-388 -392 0
-388 -394 0
-388 -396 0
-388 -398 0
-388 -400 0
-388 -402 0
-388 -404 0
-388 -406 0
-388 -408 0
-388 -410 0
-388 -412 0
-388 -414 0
-388 -416 0
-388 -418 0
-388 -420 0
-388 -422 0
-388 -424 0
-388 -426 0
-388 -428 0
-388 -430 0
-388 -432 0
-388 -434 0
-388 -436 0
-388 -438 0
-388 -440 0
-388 -442 0
-388 -444 0
-388 -446 0
-388 -448 0
-388 -450 0
-388 -452 0
-388 -454 0
-388 -456 0
-388 -458 0
-388 -460 0
-388 -462 0
-388 -464 0
-388 -466 0
-388 -468 0
-388 -470 0
-388 -472 0
-388 -474 0
-388 -476 0
-388 -478 0
-388 -480 0
-388 -482 0
-388 -484 0
-388 -486 0
-388 -488 0
-388 -490 0
-388 -492 0
-388 -494 0
-390 -392 0
-390 -394 0
-390 -396 0
-390 -398 0
-390 -400 0
-390 -402 0
-390 -404 0
-390 -406 0
-390 -408 0
-390 -410 0
-390 -412 0
-390 -414 0
-390 -416 0
-390 -418 0
-390 -420 0
-390 -422 0
-390 -424 0
-390 -426 0
-390 -428 0
-390 -430 0
-390 -432 0
-390 -434 0
-390 -436 0
-390 -438 0
-390 -440 0
-390 -442 0
-390 -444 0
-390 -446 0
-390 -448 0
-390 -450 0
-390 -452 0
-390 -454 0
-390 -456 0
-390 -458 0
-390 -460 0
-390 -462 0
-390 -464 0
-390 -466 0
-390 -468 0
-390 -470 0
-390 -472 0
-390 -474 0
-390 -476 0
-390 -478 0
-390 -480 0
-390 -482 0
-390 -484 0
-390 -486 0
-390 -488 0
-390 -490 0
-390 -492 0
-390 -494 0
-392 -394 0
-392 -396 0
-392 -398 0
-392 -400 0
-392 -402 0
-392 -404 0
-392 -406 0
-392 -408 0
-392 -410 0
-392 -412 0
-392 -414 0
-392 -416 0
-392 -418 0
-392 -420 0
-392 -422 0
-392 -424 0
-392 -426 0
-392 -428 0
-392 -430 0
-392 -432 0
-392 -434 0
-392 -436 0
-392 -438 0
-392 -440 0
-392 -442 0
-392 -444 0
-392 -446 0
-392 -448 0
-392 -450 0
-392 -452 0
-392 -454 0
-392 -456 0
-392 -458 0
-392 -460 0
-392 -462 0
-392 -464 0
-392 -466 0
-392 -468 0
-392 -470 0
-392 -472 0
-392 -474 0
-392 -476 0
-392 -478 0
-392 -480 0
-392 -482 0
-392 -484 0
-392 -486 0
-392 -488 0
-392 -490 0
-392 -492 0
-392 -494 0
-394 -396 0
-394 -398 0
-394 -400 0
-394 -402 0
-394 -404 0
-394 -406 0
-394 -408 0
-394 -410 0
-394 -412 0
-394 -414 0
-394 -416 0
-394 -418 0
-394 -420 0
-394 -422 0
-394 -424 0
-394 -426 0
-394 -428 0
-394 -430 0
-394 -432 0
-394 -434 0
-394 -436 0
-394 -438 0
-394 -440 0
-394 -442 0
-394 -444 0
-394 -446 0
-394 -448 0
-394 -450 0
-394 -452 0
-394 -454 0
-394 -456 0
-394 -458 0
-394 -460 0
-394 -462 0
-394 -464 0
-394 -466 0
-394 -468 0
-394 -470 0
-394 -472 0
-394 -474 0
-394 -476 0
-394 -478 0
-394 -480 0
-394 -482 0
-394 -484 0
-394 -486 0
-394 -488 0
-394 -490 0
-394 -492 0
-394 -494 0
-396 -398 0
-396 -400 0
-396 -402 0
-396 -404 0
-396 -406 0
-396 -408 0
-396 -410 0
-396 -412 0
-396 -414 0
-396 -416 0
-396 -418 0
-396 -420 0
-396 -422 0
-396 -424 0
-396 -426 0
-396 -428 0
-396 -430 0
-396 -432 0
-396 -434 0
-396 -436 0
-396 -438 0
-396 -440 0
-396 -442 0
-396 -444 0
-396 -446 0
-396 -448 0
-396 -450 0
-396 -452 0
-396 -454 0
-396 -456 0
-396 -458 0
-396 -460 0
-396 -462 0
-396 -464 0
-396 -466 0
-396 -468 0
-396 -470 0
-396 -472 0
-396 -474 0
-396 -476 0
-396 -478 0
-396 -480 0
-396 -482 0
-396 -484 0
-396 -486 0
-396 -488 0
-396 -490 0
-396 -492 0
-396 -494 0
-398 -400 0
-398 -402 0
-398 -404 0
-398 -406 0
-398 -408 0
-398 -410 0
-398 -412 0
-398 -414 0
-398 -416 0
-398 -418 0
-398 -420 0
-398 -422 0
-398 -424 0
-398 -426 0
-398 -428 0
-398 -430 0
-398 -432 0
-398 -434 0
-398 -436 0
-398 -438 0
-398 -440 0
-398 -442 0
-398 -444 0
-398 -446 0
-398 -448 0
-398 -450 0
-398 -452 0
-398 -454 0
-398 -456 0
-398 -458 0
-398 -460 0
-398 -462 0
-398 -464 0
-398 -466 0
-398 -468 0
-398 -470 0
-398 -472 0
-398 -474 0
-398 -476 0
-398 -478 0
-398 -480 0
-398 -482 0
-398 -484 0
-398 -486 0
-398 -488 0
-398 -490 0
-398 -492 0
-398 -494 0
-400 -402 0
-400 -404 0
-400 -406 0
-400 -408 0
-400 -410 0
-400 -412 0
-400 -414 0
-400 -416 0
-400 -418 0
-400 -420 0
-400 -422 0
-400 -424 0
-400 -426 0
-400 -428 0
-400 -430 0
-400 -432 0
-400 -434 0
-400 -436 0
-400 -438 0
-400 -440 0
-400 -442 0
-400 -444 0
-400 -446 0
-400 -448 0
-400 -450 0
-400 -452 0
-400 -454 0
-400 -456 0
-400 -458 0
-400 -460 0
-400 -462 0
-400 -464 0
-400 -466 0
-400 -468 0
-400 -470 0
-400 -472 0
-400 -474 0
-400 -476 0
-400 -478 0
-400 -480 0
-400 -482 0
-400 -484 0
-400 -486 0
-400 -488 0
-400 -490 0
-400 -492 0
-400 -494 0
-402 -404 0
-402 -406 0
-402 -408 0
-402 -410 0
-402 -412 0
-402 -414 0
-402 -416 0
-402 -418 0
-402 -420 0
-402 -422 0
-402 -424 0
-402 -426 0
-402 -428 0
-402 -430 0
-402 -432 0
-402 -434 0
-402 -436 0
-402 -438 0
-402 -440 0
-402 -442 0
-402 -444 0
-402 -446 0
-402 -448 0
-402 -450 0
-402 -452 0
-402 -454 0
-402 -456 0
-402 -458 0
-402 -460 0
-402 -462 0
-402 -464 0
-402 -466 0
-402 -468 0
-402 -470 0
-402 -472 0
-402 -474 0
-402 -476 0
-402 -478 0
-402 -480 0
-402 -482 0
-402 -484 0
-402 -486 0
-402 -488 0
-402 -490 0
-402 -492 0
-402 -494 0
-404 -406 0
-404 -408 0
-404 -410 0
-404 -412 0
-404 -414 0
-404 -416 0
-404 -418 0
-404 -420 0
-404 -422 0
-404 -424 0
-404 -426 0
-404 -428 0
-404 -430 0
-404 -432 0
-404 -434 0
-404 -436 0
-404 -438 0
-404 -440 0
-404 -442 0
-404 -444 0
-404 -446 0
-404 -448 0
-404 -450 0
-404 -452 0
-404 -454 0
-404 -456 0
-404 -458 0
-404 -460 0
-404 -462 0
-404 -464 0
-404 -466 0
-404 -468 0
-404 -470 0
-404 -472 0
-404 -474 0
-404 -476 0
-404 -478 0
-404 -480 0
-404 -482 0
-404 -484 0
-404 -486 0
-404 -488 0
-404 -490 0
-404 -492 0
-404 -494 0
-406 -408 0
-406 -410 0
-406 -412 0
-406 -414 0
-406 -416 0
-406 -418 0
-406 -420 0
-406 -422 0
-406 -424 0
-406 -426 0
-406 -428 0
-406 -430 0
-406 -432 0
-406 -434 0
-406 -436 0
-406 -438 0
-406 -440 0
-406 -442 0
-406 -444 0
-406 -446 0
-406 -448 0
-406 -450 0
-406 -452 0
-406 -454 0
-406 -456 0
-406 -458 0
-406 -460 0
-406 -462 0
-406 -464 0
-406 -466 0
-406 -468 0
-406 -470 0
-406 -472 0
-406 -474 0
-406 -476 0
-406 -478 0
-406 -480 0
-406 -482 0
-406 -484 0
-406 -486 0
-406 -488 0
-406 -490 0
-406 -492 0
-406 -494 0
-408 -410 0
-408 -412 0
-408 -414 0
-408 -416 0
-408 -418 0
-408 -420 0
-408 -422 0
-408 -424 0
-408 -426 0
-408 -428 0
-408 -430 0
-408 -432 0
-408 -434 0
-408 -436 0
-408 -438 0
-408 -440 0
-408 -442 0
-408 -444 0
-408 -446 0
-408 -448 0
-408 -450 0
-408 -452 0
-408 -454 0
-408 -456 0
-408 -458 0
-408 -460 0
-408 -462 0
-408 -464 0
-408 -466 0
-408 -468 0
-408 -470 0
-408 -472 0
-408 -474 0
-408 -476 0
-408 -478 0
-408 -480 0
-408 -482 0
-408 -484 0
-408 -486 0
-408 -488 0
-408 -490 0
-408 -492 0
-408 -494 0
-410 -412 0
-410 -414 0
-410 -416 0
-410 -418 0
-410 -420 0
-410 -422 0
-410 -424 0
-410 -426 0
-410 -428 0
-410 -430 0
-410 -432 0
-410 -434 0
-410 -436 0
-410 -438 0
-410 -440 0
-410 -442 0
-410 -444 0
-410 -446 0
-410 -448 0
-410 -450 0
-410 -452 0
-410 -454 0
-410 -456 0
-410 -458 0
-410 -460 0
-410 -462 0
-410 -464 0
-410 -466 0
-410 -468 0
-410 -470 0
-410 -472 0
-410 -474 0
-410 -476 0
-410 -478 0
-410 -480 0
-410 -482 0
-410 -484 0
-410 -486 0
-410 -488 0
-410 -490 0
-410 -492 0
-410 -494 0
-412 -414 0
-412 -416 0
-412 -418 0
-412 -420 0
-412 -422 0
-412 -424 0
-412 -426 0
-412 -428 0
-412 -430 0
-412 -432 0
-412 -434 0
-412 -436 0
-412 -438 0
-412 -440 0
-412 -442 0
-412 -444 0
-412 -446 0
-412 -448 0
-412 -450 0
-412 -452 0
-412 -454 0
-412 -456 0
-412 -458 0
-412 -460 0
-412 -462 0
-412 -464 0
-412 -466 0
-412 -468 0
-412 -470 0
-412 -472 0
-412 -474 0
-412 -476 0
-412 -478 0
-412 -480 0
-412 -482 0
-412 -484 0
-412 -486 0
-412 -488 0
-412 -490 0
-412 -492 0
-412 -494 0
-414 -416 0
-414 -418 0
-414 -420 0
-414 -422 0
-414 -424 0
-414 -426 0
-414 -428 0
-414 -430 0
-414 -432 0
-414 -434 0
-414 -436 0
-414 -438 0
-414 -440 0
-414 -442 0
-414 -444 0
-414 -446 0
-414 -448 0
-414 -450 0
-414 -452 0
-414 -454 0
-414 -456 0
-414 -458 0
-414 -460 0
-414 -462 0
-414 -464 0
-414 -466 0
-414 -468 0
-414 -470 0
-414 -472 0
-414 -474 0
-414 -476 0
-414 -478 0
-414 -480 0
-414 -482 0
-414 -484 0
-414 -486 0
-414 -488 0
-414 -490 0
-414 -492 0
-414 -494 0
-416 -418 0
-416 -420 0
-416 -422 0
-416 -424 0
-416 -426 0
-416 -428 0
-416 -430 0
-416 -432 0
-416 -434 0
-416 -436 0
-416 -438 0
-416 -440 0
-416 -442 0
-416 -444 0
-416 -446 0
-416 -448 0
-416 -450 0
-416 -452 0
-416 -454 0
-416 -456 0
-416 -458 0
-416 -460 0
-416 -462 0
-416 -464 0
-416 -466 0
-416 -468 0
-416 -470 0
-416 -472 0
-416 -474 0
-416 -476 0
-416 -478 0
-416 -480 0
-416 -482 0
-416 -484 0
-416 -486 0
-416 -488 0
-416 -490 0
-416 -492 0
-416 -494 0
-418 -420 0
-418 -422 0
-418 -424 0
-418 -426 0
-418 -428 0
-418 -430 0
-418 -432 0
-418 -434 0
-418 -436 0
-418 -438 0
-418 -440 0
-418 -442 0
-418 -444 0
-418 -446 0
-418 -448 0
-418 -450 0
-418 -452 0
-418 -454 0
-418 -456 0
-418 -458 0
-418 -460 0
-418 -462 0
-418 -464 0
-418 -466 0
-418 -468 0
-418 -470 0
-418 -472 0
-418 -474 0
-418 -476 0
-418 -478 0
-418 -480 0
-418 -482 0
-418 -484 0
-418 -486 0
-418 -488 0
-418 -490 0
-418 -492 0
-418 -494 0
-420 -422 0
-420 -424 0
-420 -426 0
-420 -428 0
-420 -430 0
-420 -432 0
-420 -434 0
-420 -436 0
-420 -438 0
-420 -440 0
-420 -442 0
-420 -444 0
-420 -446 0
-420 -448 0
-420 -450 0
-420 -452 0
-420 -454 0
-420 -456 0
-420 -458 0
-420 -460 0
-420 -462 0
-420 -464 0
-420 -466 0
-420 -468 0
-420 -470 0
-420 -472 0
-420 -474 0
-420 -476 0
-420 -478 0
-420 -480 0
-420 -482 0
-420 -484 0
-420 -486 0
-420 -488 0
-420 -490 0
-420 -492 0
-420 -494 0
-422 -424 0
-422 -426 0
-422 -428 0
-422 -430 0
-422 -432 0
-422 -434 0
-422 -436 0
-422 -438 0
-422 -440 0
-422 -442 0
-422 -444 0
-422 -446 0
-422 -448 0
-422 -450 0
-422 -452 0
-422 -454 0
-422 -456 0
-422 -458 0
-422 -460 0
-422 -462 0
-422 -464 0
-422 -466 0
-422 -468 0
-422 -470 0
-422 -472 0
-422 -474 0
-422 -476 0
-422 -478 0
-422 -480 0
-422 -482 0
-422 -484 0
-422 -486 0
-422 -488 0
-422 -490 0
-422 -492 0
-422 -494 0
-424 -426 0
-424 -428 0
-424 -430 0
-424 -432 0
-424 -434 0
-424 -436 0
-424 -438 0
-424 -440 0
-424 -442 0
-424 -444 0
-424 -446 0
-424 -448 0
-424 -450 0
-424 -452 0
-424 -454 0
-424 -456 0
-424 -458 0
-424 -460 0
-424 -462 0
-424 -464 0
-424 -466 0
-424 -468 0
-424 -470 0
-424 -472 0
-424 -474 0
-424 -476 0
-424 -478 0
-424 -480 0
-424 -482 0
-424 -484 0
-424 -486 0
-424 -488 0
-424 -490 0
-424 -492 0
-424 -494 0
-426 -428 0
-426 -430 0
-426 -432 0
-426 -434 0
-426 -436 0
-426 -438 0
-426 -440 0
-426 -442 0
-426 -444 0
-426 -446 0
-426 -448 0
-426 -450 0
-426 -452 0
-426 -454 0
-426 -456 0
-426 -458 0
-426 -460 0
-426 -462 0
-426 -464 0
-426 -466 0
-426 -468 0
-426 -470 0
-426 -472 0
-426 -474 0
-426 -476 0
-426 -478 0
-426 -480 0
-426 -482 0
-426 -484 0
-426 -486 0
-426 -488 0
-426 -490 0
-426 -492 0
-426 -494 0
-428 -430 0
-428 -432 0
-428 -434 0
-428 -436 0
-428 -438 0
-428 -440 0
-428 -442 0
-428 -444 0
-428 -446 0
-428 -448 0
-428 -450 0
-428 -452 0
-428 -454 0
-428 -456 0
-428 -458 0
-428 -460 0
-428 -462 0
-428 -464 0
-428 -466 0
-428 -468 0
-428 -470 0
-428 -472 0
-428 -474 0
-428 -476 0
-428 -478 0
-428 -480 0
-428 -482 0
-428 -484 0
-428 -486 0
-428 -488 0
-428 -490 0
-428 -492 0
-428 -494 0
-430 -432 0
-430 -434 0
-430 -436 0
-430 -438 0
-430 -440 0
-430 -442 0
-430 -444 0
-430 -446 0
-430 -448 0
-430 -450 0
-430 -452 0
-430 -454 0
-430 -456 0
-430 -458 0
-430 -460 0
-430 -462 0
-430 -464 0
-430 -466 0
-430 -468 0
-430 -470 0
-430 -472 0
-430 -474 0
-430 -476 0
-430 -478 0
-430 -480 0
-430 -482 0
-430 -484 0
-430 -486 0
-430 -488 0
-430 -490 0
-430 -492 0
-430 -494 0
-432 -434 0
-432 -436 0
-432 -438 0
-432 -440 0
-432 -442 0
-432 -444 0
-432 -446 0
-432 -448 0
-432 -450 0
-432 -452 0
-432 -454 0
-432 -456 0
-432 -458 0
-432 -460 0
-432 -462 0
-432 -464 0
-432 -466 0
-432 -468 0
-432 -470 0
-432 -472 0
-432 -474 0
-432 -476 0
-432 -478 0
-432 -480 0
-432 -482 0
-432 -484 0
-432 -486 0
-432 -488 0
-432 -490 0
-432 -492 0
-432 -494 0
-434 -436 0
-434 -438 0
-434 -440 0
-434 -442 0
-434 -444 0
-434 -446 0
-434 -448 0
-434 -450 0
-434 -452 0
-434 -454 0
-434 -456 0
-434 -458 0
-434 -460 0
-434 -462 0
-434 -464 0
-434 -466 0
-434 -468 0
-434 -470 0
-434 -472 0
-434 -474 0
-434 -476 0
-434 -478 0
-434 -480 0
-434 -482 0
-434 -484 0
-434 -486 0
-434 -488 0
-434 -490 0
-434 -492 0
-434 -494 0
-436 -438 0
-436 -440 0
-436 -442 0
-436 -444 0
-436 -446 0
-436 -448 0
-436 -450 0
-436 -452 0
-436 -454 0
-436 -456 0
-436 -458 0
-436 -460 0
-436 -462 0
-436 -464 0
-436 -466 0
-436 -468 0
-436 -470 0
-436 -472 0
-436 -474 0
-436 -476 0
-436 -478 0
-436 -480 0
-436 -482 0
-436 -484 0
-436 -486 0
-436 -488 0
-436 -490 0
-436 -492 0
-436 -494 0
-438 -440 0
-438 -442 0
-438 -444 0
-438 -446 0
-438 -448 0
-438 -450 0
-438 -452 0
-438 -454 0
-438 -456 0
-438 -458 0
-438 -460 0
-438 -462 0
-438 -464 0
-438 -466 0
-438 -468 0
-438 -470 0
-438 -472 0
-438 -474 0
-438 -476 0
-438 -478 0
-438 -480 0
-438 -482 0
-438 -484 0
-438 -486 0
-438 -488 0
-438 -490 0
-438 -492 0
-438 -494 0
-440 -442 0
-440 -444 0
-440 -446 0
-440 -448 0
-440 -450 0
-440 -452 0
-440 -454 0
-440 -456 0
-440 -458 0
-440 -460 0
-440 -462 0
-440 -464 0
-440 -466 0
-440 -468 0
-440 -470 0
-440 -472 0
-440 -474 0
-440 -476 0
-440 -478 0
-440 -480 0
-440 -482 0
-440 -484 0
-440 -486 0
-440 -488 0
-440 -490 0
-440 -492 0
-440 -494 0
-442 -444 0
-442 -446 0
-442 -448 0
-442 -450 0
-442 -452 0
-442 -454 0
-442 -456 0
-442 -458 0
-442 -460 0
-442 -462 0
-442 -464 0
-442 -466 0
-442 -468 0
-442 -470 0
-442 -472 0
-442 -474 0
-442 -476 0
-442 -478 0
-442 -480 0
-442 -482 0
-442 -484 0
-442 -486 0
-442 -488 0
-442 -490 0
-442 -492 0
-442 -494 0
-444 -446 0
-444 -448 0
-444 -450 0
-444 -452 0
-444 -454 0
-444 -456 0
-444 -458 0
-444 -460 0
-444 -462 0
-444 -464 0
-444 -466 0
-444 -468 0
-444 -470 0
-444 -472 0
-444 -474 0
-444 -476 0
-444 -478 0
-444 -480 0
-444 -482 0
-444 -484 0
-444 -486 0
-444 -488 0
-444 -490 0
-444 -492 0
-444 -494 0
-446 -448 0
-446 -450 0
-446 -452 0
-446 -454 0
-446 -456 0
-446 -458 0
-446 -460 0
-446 -462 0
-446 -464 0
-446 -466 0
-446 -468 0
-446 -470 0
-446 -472 0
-446 -474 0
-446 -476 0
-446 -478 0
-446 -480 0
-446 -482 0
-446 -484 0
-446 -486 0
-446 -488 0
-446 -490 0
-446 -492 0
-446 -494 0
-448 -450 0
-448 -452 0
-448 -454 0
-448 -456 0
-448 -458 0
-448 -460 0
-448 -462 0
-448 -464 0
-448 -466 0
-448 -468 0
-448 -470 0
-448 -472 0
-448 -474 0
-448 -476 0
-448 -478 0
-448 -480 0
-448 -482 0
-448 -484 0
-448 -486 0
-448 -488 0
-448 -490 0
-448 -492 0
-448 -494 0
-450 -452 0
-450 -454 0
-450 -456 0
-450 -458 0
-450 -460 0
-450 -462 0
-450 -464 0
-450 -466 0
-450 -468 0
-450 -470 0
-450 -472 0
-450 -474 0
-450 -476 0
-450 -478 0
-450 -480 0
-450 -482 0
-450 -484 0
-450 -486 0
-450 -488 0
-450 -490 0
-450 -492 0
-450 -494 0
-452 -454 0
-452 -456 0
-452 -458 0
-452 -460 0
-452 -462 0
-452 -464 0
-452 -466 0
-452 -468 0
-452 -470 0
-452 -472 0
-452 -474 0
-452 -476 0
-452 -478 0
-452 -480 0
-452 -482 0
-452 -484 0
-452 -486 0
-452 -488 0
-452 -490 0
-452 -492 0
-452 -494 0
-454 -456 0
-454 -458 0
-454 -460 0
-454 -462 0
-454 -464 0
-454 -466 0
-454 -468 0
-454 -470 0
-454 -472 0
-454 -474 0
-454 -476 0
-454 -478 0
-454 -480 0
-454 -482 0
-454 -484 0
-454 -486 0
-454 -488 0
-454 -490 0
-454 -492 0
-454 -494 0
-456 -458 0
-456 -460 0
-456 -462 0
-456 -464 0
-456 -466 0
-456 -468 0
-456 -470 0
-456 -472 0
-456 -474 0
-456 -476 0
-456 -478 0
-456 -480 0
-456 -482 0
-456 -484 0
-456 -486 0
-456 -488 0
-456 -490 0
-456 -492 0
-456 -494 0
-458 -460 0
-458 -462 0
-458 -464 0
-458 -466 0
-458 -468 0
-458 -470 0
-458 -472 0
-458 -474 0
-458 -476 0
-458 -478 0
-458 -480 0
-458 -482 0
-458 -484 0
-458 -486 0
-458 -488 0
-458 -490 0
-458 -492 0
-458 -494 0
-460 -462 0
-460 -464 0
-460 -466 0
-460 -468 0
-460 -470 0
-460 -472 0
-460 -474 0
-460 -476 0
-460 -478 0
-460 -480 0
-460 -482 0
-460 -484 0
-460 -486 0
-460 -488 0
-460 -490 0
-460 -492 0
-460 -494 0
-462 -464 0
-462 -466 0
-462 -468 0
-462 -470 0
-462 -472 0
-462 -474 0
-462 -476 0
-462 -478 0
-462 -480 0
-462 -482 0
-462 -484 0
-462 -486 0
-462 -488 0
-462 -490 0
-462 -492 0
-462 -494 0
-464 -466 0
-464 -468 0
-464 -470 0
-464 -472 0
-464 -474 0
-464 -476 0
-464 -478 0
-464 -480 0
-464 -482 0
-464 -484 0
-464 -486 0
-464 -488 0
-464 -490 0
-464 -492 0
-464 -494 0
-466 -468 0
-466 -470 0
-466 -472 0
-466 -474 0
-466 -476 0
-466 -478 0
-466 -480 0
-466 -482 0
-466 -484 0
-466 -486 0
-466 -488 0
-466 -490 0
-466 -492 0
-466 -494 0
-468 -470 0
-468 -472 0
-468 -474 0
-468 -476 0
-468 -478 0
-468 -480 0
-468 -482 0
-468 -484 0
-468 -486 0
-468 -488 0
-468 -490 0
-468 -492 0
-468 -494 0
-470 -472 0
-470 -474 0
-470 -476 0
-470 -478 0
-470 -480 0
-470 -482 0
-470 -484 0
-470 -486 0
-470 -488 0
-470 -490 0
-470 -492 0
-470 -494 0
-472 -474 0
-472 -476 0
-472 -478 0
-472 -480 0
-472 -482 0
-472 -484 0
-472 -486 0
-472 -488 0
-472 -490 0
-472 -492 0
-472 -494 0
-474 -476 0
-474 -478 0
-474 -480 0
-474 -482 0
-474 -484 0
-474 -486 0
-474 -488 0
-474 -490 0
-474 -492 0
-474 -494 0
-476 -478 0
-476 -480 0
-476 -482 0
-476 -484 0
-476 -486 0
-476 -488 0
-476 -490 0
-476 -492 0
-476 -494 0
-478 -480 0
-478 -482 0
-478 -484 0
-478 -486 0
-478 -488 0
-478 -490 0
-478 -492 0
-478 -494 0
-480 -482 0
-480 -484 0
-480 -486 0
-480 -488 0
-480 -490 0
-480 -492 0
-480 -494 0
-482 -484 0
-482 -486 0
-482 -488 0
-482 -490 0
-482 -492 0
-482 -494 0
-484 -486 0
-484 -488 0
-484 -490 0
-484 -492 0
-484 -494 0
-486 -488 0
-486 -490 0
-486 -492 0
-486 -494 0
-488 -490 0
-488 -492 0
-488 -494 0
-490 -492 0
-490 -494 0
-492 -494 0
-328 100 0
-328 -79 0
-328 -73 2 0
-328 -73 68 0
-328 -73 -22 0
-328 -73 -25 0
-328 -73 -28 0
-328 -73 -31 0
-328 -73 -34 0
-328 -73 -19 -76 0
-328 -73 -37 -85 0
-328 -73 -52 -94 0
-328 -73 166 220 274 0
-328 -76 2 0
-328 -76 71 0
-328 -76 -22 0
-328 -76 -25 0
-328 -76 -28 0
-328 -76 -31 0
-328 -76 -34 0
-328 -76 -19 -79 0
-328 -76 -37 -88 0
-328 -76 -52 -97 0
-328 -76 169 223 277 0
-328 -1 -73 -67 0
-328 -1 -76 -70 0
-330 100 0
-330 -79 0
-330 -73 5 0
-330 -73 68 0
-330 -73 -19 0
-330 -73 -25 0
-330 -73 -28 0
-330 -73 -31 0
-330 -73 -34 0
-330 -73 -22 -76 0
-330 -73 -37 -85 0
-330 -73 -40 -85 0
-330 -73 -52 -94 0
-330 -73 -55 -94 0
-330 -73 175 229 283 0
-330 -76 5 0
-330 -76 71 0
-330 -76 -19 0
-330 -76 -25 0
-330 -76 -28 0
-330 -76 -31 0
-330 -76 -34 0
-330 -76 -22 -79 0
-330 -76 -37 -88 0
-330 -76 -40 -88 0
-330 -76 -52 -97 0
-330 -76 -55 -97 0
-330 -76 178 232 286 0
-330 -4 -73 -67 0
-330 -4 -76 -70 0
-332 100 0
-332 -79 0
-332 -73 8 0
-332 -73 68 0
-332 -73 -19 0
-332 -73 -22 0
-332 -73 -28 0
-332 -73 -31 0
-332 -73 -34 0
-332 -73 -25 -76 0
-332 -73 -40 -85 0
-332 -73 -43 -85 0
-332 -73 -52 -94 0
-332 -73 -55 -94 0
-332 -73 -58 -94 0
-332 -73 184 238 292 0
-332 -76 8 0
-332 -76 71 0
-332 -76 -19 0
-332 -76 -22 0
-332 -76 -28 0
-332 -76 -31 0
-332 -76 -34 0
-332 -76 -25 -79 0
-332 -76 -40 -88 0
-332 -76 -43 -88 0
-332 -76 -52 -97 0
-332 -76 -55 -97 0
-332 -76 -58 -97 0
-332 -76 187 241 295 0
-332 -7 -73 -67 0
-332 -7 -76 -70 0
-334 100 0
-334 -79 0
-334 -73 11 0
-334 -73 68 0
-334 -73 -19 0
-334 -73 -22 0
-334 -73 -25 0
-334 -73 -31 0
-334 -73 -34 0
-334 -73 -28 -76 0
-334 -73 -43 -85 0
-334 -73 -46 -85 0
-334 -73 -55 -94 0
-334 -73 -58 -94 0
-334 -73 -61 -94 0
-334 -73 193 247 301 0
-334 -76 11 0
-334 -76 71 0
-334 -76 -19 0
-334 -76 -22 0
-334 -76 -25 0
-334 -76 -31 0
-334 -76 -34 0
-334 -76 -28 -79 0
-334 -76 -43 -88 0
-334 -76 -46 -88 0
-334 -76 -55 -97 0
-334 -76 -58 -97 0
-334 -76 -61 -97 0
-334 -76 196 250 304 0
-334 -10 -73 -67 0
-334 -10 -76 -70 0
-336 100 0
-336 -79 0
-336 -73 14 0
-336 -73 68 0
-336 -73 -19 0
-336 -73 -22 0
-336 -73 -25 0
-336 -73 -28 0
-336 -73 -34 0
-336 -73 -31 -76 0
-336 -73 -46 -85 0
-336 -73 -49 -85 0
-336 -73 -58 -94 0
-336 -73 -61 -94 0
-336 -73 202 256 310 0
-336 -76 14 0
-336 -76 71 0
-336 -76 -19 0
-336 -76 -22 0
-336 -76 -25 0
-336 -76 -28 0
-336 -76 -34 0
-336 -76 -31 -79 0
-336 -76 -46 -88 0
-336 -76 -49 -88 0
-336 -76 -58 -97 0
-336 -76 -61 -97 0
-336 -76 205 259 313 0
-336 -13 -73 -67 0
-336 -13 -76 -70 0
-338 100 0
-338 -79 0
-338 -73 17 0
-338 -73 68 0
-338 -73 -19 0
-338 -73 -22 0
-338 -73 -25 0
-338 -73 -28 0
-338 -73 -31 0
-338 -73 -34 -76 0
-338 -73 -49 -85 0
-338 -73 -61 -94 0
-338 -73 211 265 319 0
-338 -76 17 0
-338 -76 71 0
-338 -76 -19 0
-338 -76 -22 0
-338 -76 -25 0
-338 -76 -28 0
-338 -76 -31 0
-338 -76 -34 -79 0
-338 -76 -49 -88 0
-338 -76 -61 -97 0
-338 -76 214 268 322 0
-338 -16 -73 -67 0
-338 -16 -76 -70 0
-340 100 0
-340 -88 0
-340 -82 2 0
-340 -82 68 0
-340 -82 -40 0
-340 -82 -43 0
-340 -82 -46 0
-340 -82 -49 0
-340 -82 -19 -76 0
-340 -82 -37 -85 0
-340 -82 -52 -94 0
-340 -82 166 220 274 0
-340 -85 2 0
-340 -85 71 0
-340 -85 -40 0
-340 -85 -43 0
-340 -85 -46 0
-340 -85 -49 0
-340 -85 -19 -79 0
-340 -85 -37 -88 0
-340 -85 -52 -97 0
-340 -85 169 223 277 0
-340 -1 -82 -67 0
-340 -1 -85 -70 0
-342 100 0
-342 -88 0
-342 -82 5 0
-342 -82 68 0
-342 -82 -43 0
-342 -82 -46 0
-342 -82 -49 0
-342 -82 -22 -76 0
-342 -82 -37 -85 0
-342 -82 -40 -85 0
-342 -82 -52 -94 0
-342 -82 -55 -94 0
-342 -82 175 229 283 0
-342 -85 5 0
-342 -85 71 0
-342 -85 -43 0
-342 -85 -46 0
-342 -85 -49 0
-342 -85 -22 -79 0
-342 -85 -37 -88 0
-342 -85 -40 -88 0
-342 -85 -52 -97 0
-342 -85 -55 -97 0
-342 -85 178 232 286 0
-342 -4 -82 -67 0
-342 -4 -85 -70 0
-344 100 0
-344 -88 0
-344 -82 8 0
-344 -82 68 0
-344 -82 -37 0
-344 -82 -46 0
-344 -82 -49 0
-344 -82 -25 -76 0
-344 -82 -40 -85 0
-344 -82 -43 -85 0
-344 -82 -52 -94 0
-344 -82 -55 -94 0
-344 -82 -58 -94 0
-344 -82 184 238 292 0
-344 -85 8 0
-344 -85 71 0
-344 -85 -37 0
-344 -85 -46 0
-344 -85 -49 0
-344 -85 -25 -79 0
-344 -85 -40 -88 0
-344 -85 -43 -88 0
-344 -85 -52 -97 0
-344 -85 -55 -97 0
-344 -85 -58 -97 0
-344 -85 187 241 295 0
-344 -7 -82 -67 0
-344 -7 -85 -70 0
-346 100 0
-346 -88 0
-346 -82 11 0
-346 -82 68 0
-346 -82 -37 0
-346 -82 -40 0
-346 -82 -49 0
-346 -82 -28 -76 0
-346 -82 -43 -85 0
-346 -82 -46 -85 0
-346 -82 -55 -94 0
-346 -82 -58 -94 0
-346 -82 -61 -94 0
-346 -82 193 247 301 0
-346 -85 11 0
-346 -85 71 0
-346 -85 -37 0
-346 -85 -40 0
-346 -85 -49 0
-346 -85 -28 -79 0
-346 -85 -43 -88 0
-346 -85 -46 -88 0
-346 -85 -55 -97 0
-346 -85 -58 -97 0
-346 -85 -61 -97 0
-346 -85 196 250 304 0
-346 -10 -82 -67 0
-346 -10 -85 -70 0
-348 100 0
-348 -88 0
-348 -82 14 0
-348 -82 68 0
-348 -82 -37 0
-348 -82 -40 0
-348 -82 -43 0
-348 -82 -31 -76 0
-348 -82 -46 -85 0
-348 -82 -49 -85 0
-348 -82 -58 -94 0
-348 -82 -61 -94 0
-348 -82 202 256 310 0
-348 -85 14 0
-348 -85 71 0
-348 -85 -37 0
-348 -85 -40 0
-348 -85 -43 0
-348 -85 -31 -79 0
-348 -85 -46 -88 0
-348 -85 -49 -88 0
-348 -85 -58 -97 0
-348 -85 -61 -97 0
-348 -85 205 259 313 0
-348 -13 -82 -67 0
-348 -13 -85 -70 0
-350 100 0
-350 -88 0
-350 -82 17 0
-350 -82 68 0
-350 -82 -37 0
-350 -82 -40 0
-350 -82 -43 0
-350 -82 -46 0
-350 -82 -34 -76 0
-350 -82 -49 -85 0
-350 -82 -61 -94 0
-350 -82 211 265 319 0
-350 -85 17 0
-350 -85 71 0
-350 -85 -37 0
-350 -85 -40 0
-350 -85 -43 0
-350 -85 -46 0
-350 -85 -34 -79 0
-350 -85 -49 -88 0
-350 -85 -61 -97 0
-350 -85 214 268 322 0
-350 -16 -82 -67 0
-350 -16 -85 -70 0
-352 100 0
-352 -97 0
-352 -91 2 0
-352 -91 68 0
-352 -91 -55 0
-352 -91 -58 0
-352 -91 -61 0
-352 -91 -19 -76 0
-352 -91 -37 -85 0
-352 -91 -52 -94 0
-352 -91 166 220 274 0
-352 -94 2 0
-352 -94 71 0
-352 -94 -55 0
-352 -94 -58 0
-352 -94 -61 0
-352 -94 -19 -79 0
-352 -94 -37 -88 0
-352 -94 -52 -97 0
-352 -94 169 223 277 0
-352 -1 -91 -67 0
-352 -1 -94 -70 0
-354 100 0
-354 -97 0
-354 -91 5 0
-354 -91 68 0
-354 -91 -58 0
-354 -91 -61 0
-354 -91 -22 -76 0
-354 -91 -37 -85 0
-354 -91 -40 -85 0
-354 -91 -52 -94 0
-354 -91 -55 -94 0
-354 -91 175 229 283 0
-354 -94 5 0
-354 -94 71 0
-354 -94 -58 0
-354 -94 -61 0
-354 -94 -22 -79 0
-354 -94 -37 -88 0
-354 -94 -40 -88 0
-354 -94 -52 -97 0
-354 -94 -55 -97 0
-354 -94 178 232 286 0
-354 -4 -91 -67 0
-354 -4 -94 -70 0
-356 100 0
-356 -97 0
-356 -91 8 0
-356 -91 68 0
-356 -91 -61 0
-356 -91 -25 -76 0
-356 -91 -40 -85 0
-356 -91 -43 -85 0
-356 -91 -52 -94 0
-356 -91 -55 -94 0
-356 -91 -58 -94 0
-356 -91 184 238 292 0
-356 -94 8 0
-356 -94 71 0
-356 -94 -61 0
-356 -94 -25 -79 0
-356 -94 -40 -88 0
-356 -94 -43 -88 0
-356 -94 -52 -97 0
-356 -94 -55 -97 0
-356 -94 -58 -97 0
-356 -94 187 241 295 0
-356 -7 -91 -67 0
-356 -7 -94 -70 0
-358 100 0
-358 -97 0
-358 -91 11 0
-358 -91 68 0
-358 -91 -52 0
-358 -91 -28 -76 0
-358 -91 -43 -85 0
-358 -91 -46 -85 0
-358 -91 -55 -94 0
-358 -91 -58 -94 0
-358 -91 -61 -94 0
-358 -91 193 247 301 0
-358 -94 11 0
-358 -94 71 0
-358 -94 -52 0
-358 -94 -28 -79 0
-358 -94 -43 -88 0
-358 -94 -46 -88 0
-358 -94 -55 -97 0
-358 -94 -58 -97 0
-358 -94 -61 -97 0
-358 -94 196 250 304 0
-358 -10 -91 -67 0
-358 -10 -94 -70 0
-360 100 0
-360 -97 0
-360 -91 14 0
-360 -91 68 0
-360 -91 -52 0
-360 -91 -55 0
-360 -91 -31 -76 0
-360 -91 -46 -85 0
-360 -91 -49 -85 0
-360 -91 -58 -94 0
-360 -91 -61 -94 0
-360 -91 202 256 310 0
-360 -94 14 0
-360 -94 71 0
-360 -94 -52 0
-360 -94 -55 0
-360 -94 -31 -79 0
-360 -94 -46 -88 0
-360 -94 -49 -88 0
-360 -94 -58 -97 0
-360 -94 -61 -97 0
-360 -94 205 259 313 0
-360 -13 -91 -67 0
-360 -13 -94 -70 0
-362 100 0
-362 -97 0
-362 -91 17 0
-362 -91 68 0
-362 -91 -52 0
-362 -91 -55 0
-362 -91 -58 0
-362 -91 -34 -76 0
-362 -91 -49 -85 0
-362 -91 -61 -94 0
-362 -91 211 265 319 0
-362 -94 17 0
-362 -94 71 0
-362 -94 -52 0
-362 -94 -55 0
-362 -94 -58 0
-362 -94 -34 -79 0
-362 -94 -49 -88 0
-362 -94 -61 -97 0
-362 -94 214 268 322 0
-362 -16 -91 -67 0
-362 -16 -94 -70 0
-364 100 0
-364 2 0
-364 65 0
-364 -1 -64 0
-364 -19 -73 0
-364 -37 -82 0
-364 -52 -91 0
-366 100 0
-366 5 0
-366 65 0
-366 -4 -64 0
-366 -22 -73 0
-366 -37 -82 0
-366 -40 -82 0
-366 -52 -91 0
-366 -55 -91 0
-368 100 0
-368 8 0
-368 65 0
-368 -7 -64 0
-368 -25 -73 0
-368 -40 -82 0
-368 -43 -82 0
-368 -52 -91 0
-368 -55 -91 0
-368 -58 -91 0
-370 100 0
-370 11 0
-370 65 0
-370 -10 -64 0
-370 -28 -73 0
-370 -43 -82 0
-370 -46 -82 0
-370 -55 -91 0
-370 -58 -91 0
-370 -61 -91 0
-372 100 0
-372 14 0
-372 65 0
-372 -13 -64 0
-372 -31 -73 0
-372 -46 -82 0
-372 -49 -82 0
-372 -58 -91 0
-372 -61 -91 0
-374 100 0
-374 17 0
-374 65 0
-374 -16 -64 0
-374 -34 -73 0
-374 -49 -82 0
-374 -61 -91 0
-376 103 0
-376 -70 0
-376 -64 20 0
-376 -64 77 0
-376 -64 -4 0
-376 -64 -7 0
-376 -64 -10 0
-376 -64 -13 0
-376 -64 -16 0
-376 -64 -1 -67 0
-376 -64 -37 -85 0
-376 -64 -52 -94 0
-376 -64 112 220 274 0
-376 -67 20 0
-376 -67 80 0
-376 -67 -4 0
-376 -67 -7 0
-376 -67 -10 0
-376 -67 -13 0
-376 -67 -16 0
-376 -67 -1 -70 0
-376 -67 -37 -88 0
-376 -67 -52 -97 0
-376 -67 115 223 277 0
-376 -19 -64 -76 0
-376 -19 -67 -79 0
-378 103 0
-378 -70 0
-378 -64 23 0
-378 -64 77 0
-378 -64 -1 0
-378 -64 -7 0
-378 -64 -10 0
-378 -64 -13 0
-378 -64 -16 0
-378 -64 -4 -67 0
-378 -64 -37 -85 0
-378 -64 -40 -85 0
-378 -64 -52 -94 0
-378 -64 -55 -94 0
-378 -64 121 229 283 0
-378 -67 23 0
-378 -67 80 0
-378 -67 -1 0
-378 -67 -7 0
-378 -67 -10 0
-378 -67 -13 0
-378 -67 -16 0
-378 -67 -4 -70 0
-378 -67 -37 -88 0
-378 -67 -40 -88 0
-378 -67 -52 -97 0
-378 -67 -55 -97 0
-378 -67 124 232 286 0
-378 -22 -64 -76 0
-378 -22 -67 -79 0
-380 103 0
-380 -70 0
-380 -64 26 0
-380 -64 77 0
-380 -64 -1 0
-380 -64 -4 0
-380 -64 -10 0
-380 -64 -13 0
-380 -64 -16 0
-380 -64 -7 -67 0
-380 -64 -40 -85 0
-380 -64 -43 -85 0
-380 -64 -52 -94 0
-380 -64 -55 -94 0
-380 -64 -58 -94 0
-380 -64 130 238 292 0
-380 -67 26 0
-380 -67 80 0
-380 -67 -1 0
-380 -67 -4 0
-380 -67 -10 0
-380 -67 -13 0
-380 -67 -16 0
-380 -67 -7 -70 0
-380 -67 -40 -88 0
-380 -67 -43 -88 0
-380 -67 -52 -97 0
-380 -67 -55 -97 0
-380 -67 -58 -97 0
-380 -67 133 241 295 0
-380 -25 -64 -76 0
-380 -25 -67 -79 0
-382 103 0
-382 -70 0
-382 -64 29 0
-382 -64 77 0
-382 -64 -1 0
-382 -64 -4 0
-382 -64 -7 0
-382 -64 -13 0
-382 -64 -16 0
-382 -64 -10 -67 0
-382 -64 -43 -85 0
-382 -64 -46 -85 0
-382 -64 -55 -94 0
-382 -64 -58 -94 0
-382 -64 -61 -94 0
-382 -64 139 247 301 0
-382 -67 29 0
-382 -67 80 0
-382 -67 -1 0
-382 -67 -4 0
-382 -67 -7 0
-382 -67 -13 0
-382 -67 -16 0
-382 -67 -10 -70 0
-382 -67 -43 -88 0
-382 -67 -46 -88 0
-382 -67 -55 -97 0
-382 -67 -58 -97 0
-382 -67 -61 -97 0
-382 -67 142 250 304 0
-382 -28 -64 -76 0
-382 -28 -67 -79 0
-384 103 0
-384 -70 0
-384 -64 32 0
-384 -64 77 0
-384 -64 -1 0
-384 -64 -4 0
-384 -64 -7 0
-384 -64 -10 0
-384 -64 -16 0
-384 -64 -13 -67 0
-384 -64 -46 -85 0
-384 -64 -49 -85 0
-384 -64 -58 -94 0
-384 -64 -61 -94 0
-384 -64 148 256 310 0
-384 -67 32 0
-384 -67 80 0
-384 -67 -1 0
-384 -67 -4 0
-384 -67 -7 0
-384 -67 -10 0
-384 -67 -16 0
-384 -67 -13 -70 0
-384 -67 -46 -88 0
-384 -67 -49 -88 0
-384 -67 -58 -97 0
-384 -67 -61 -97 0
-384 -67 151 259 313 0
-384 -31 -64 -76 0
-384 -31 -67 -79 0
-386 103 0
-386 -70 0
-386 -64 35 0
-386 -64 77 0
-386 -64 -1 0
-386 -64 -4 0
-386 -64 -7 0
-386 -64 -10 0
-386 -64 -13 0
-386 -64 -16 -67 0
-386 -64 -49 -85 0
-386 -64 -61 -94 0
-386 -64 157 265 319 0
-386 -67 35 0
-386 -67 80 0
-386 -67 -1 0
-386 -67 -4 0
-386 -67 -7 0
-386 -67 -10 0
-386 -67 -13 0
-386 -67 -16 -70 0
-386 -67 -49 -88 0
-386 -67 -61 -97 0
-386 -67 160 268 322 0
-386 -34 -64 -76 0
-386 -34 -67 -79 0
-388 103 0
-388 -88 0
-388 -82 20 0
-388 -82 77 0
-388 -82 -40 0
-388 -82 -43 0
-388 -82 -46 0
-388 -82 -49 0
-388 -82 -1 -67 0
-388 -82 -37 -85 0
-388 -82 -52 -94 0
-388 -82 112 220 274 0
-388 -85 20 0
-388 -85 80 0
-388 -85 -40 0
-388 -85 -43 0
-388 -85 -46 0
-388 -85 -49 0
-388 -85 -1 -70 0
-388 -85 -37 -88 0
-388 -85 -52 -97 0
-388 -85 115 223 277 0
-388 -19 -82 -76 0
-388 -19 -85 -79 0
-390 103 0
-390 -88 0
-390 -82 23 0
-390 -82 77 0
-390 -82 -43 0
-390 -82 -46 0
-390 -82 -49 0
-390 -82 -4 -67 0
-390 -82 -37 -85 0
-390 -82 -40 -85 0
-390 -82 -52 -94 0
-390 -82 -55 -94 0
-390 -82 121 229 283 0
-390 -85 23 0
-390 -85 80 0
-390 -85 -43 0
-390 -85 -46 0
-390 -85 -49 0
-390 -85 -4 -70 0
-390 -85 -37 -88 0
-390 -85 -40 -88 0
-390 -85 -52 -97 0
-390 -85 -55 -97 0
-390 -85 124 232 286 0
-390 -22 -82 -76 0
-390 -22 -85 -79 0
-392 103 0
-392 -88 0
-392 -82 26 0
-392 -82 77 0
-392 -82 -37 0
-392 -82 -46 0
-392 -82 -49 0
-392 -82 -7 -67 0
-392 -82 -40 -85 0
-392 -82 -43 -85 0
-392 -82 -52 -94 0
-392 -82 -55 -94 0
-392 -82 -58 -94 0
-392 -82 130 238 292 0
-392 -85 26 0
-392 -85 80 0
-392 -85 -37 0
-392 -85 -46 0
-392 -85 -49 0
-392 -85 -7 -70 0
-392 -85 -40 -88 0
-392 -85 -43 -88 0
-392 -85 -52 -97 0
-392 -85 -55 -97 0
-392 -85 -58 -97 0
-392 -85 133 241 295 0
-392 -25 -82 -76 0
-392 -25 -85 -79 0
-394 103 0
-394 -88 0
-394 -82 29 0
-394 -82 77 0
-394 -82 -37 0
-394 -82 -40 0
-394 -82 -49 0
-394 -82 -10 -67 0
-394 -82 -43 -85 0
-394 -82 -46 -85 0
-394 -82 -55 -94 0
-394 -82 -58 -94 0
-394 -82 -61 -94 0
-394 -82 139 247 301 0
-394 -85 29 0
-394 -85 80 0
-394 -85 -37 0
-394 -85 -40 0
-394 -85 -49 0
-394 -85 -10 -70 0
-394 -85 -43 -88 0
-394 -85 -46 -88 0
-394 -85 -55 -97 0
-394 -85 -58 -97 0
-394 -85 -61 -97 0
-394 -85 142 250 304 0
-394 -28 -82 -76 0
-394 -28 -85 -79 0
-396 103 0
-396 -88 0
-396 -82 32 0
-396 -82 77 0
-396 -82 -37 0
-396 -82 -40 0
-396 -82 -43 0
-396 -82 -13 -67 0
-396 -82 -46 -85 0
-396 -82 -49 -85 0
-396 -82 -58 -94 0
-396 -82 -61 -94 0
-396 -82 148 256 310 0
-396 -85 32 0
-396 -85 80 0
-396 -85 -37 0
-396 -85 -40 0
-396 -85 -43 0
-396 -85 -13 -70 0
-396 -85 -46 -88 0
-396 -85 -49 -88 0
-396 -85 -58 -97 0
-396 -85 -61 -97 0
-396 -85 151 259 313 0
-396 -31 -82 -76 0
-396 -31 -85 -79 0
-398 103 0
-398 -88 0
-398 -82 35 0
-398 -82 77 0
-398 -82 -37 0
-398 -82 -40 0
-398 -82 -43 0
-398 -82 -46 0
-398 -82 -16 -67 0
-398 -82 -49 -85 0
-398 -82 -61 -94 0
-398 -82 157 265 319 0
-398 -85 35 0
-398 -85 80 0
-398 -85 -37 0
-398 -85 -40 0
-398 -85 -43 0
-398 -85 -46 0
-398 -85 -16 -70 0
-398 -85 -49 -88 0
-398 -85 -61 -97 0
-398 -85 160 268 322 0
-398 -34 -82 -76 0
-398 -34 -85 -79 0
-400 103 0
-400 -97 0
-400 -91 20 0
-400 -91 77 0
-400 -91 -55 0
-400 -91 -58 0
-400 -91 -61 0
-400 -91 -1 -67 0
-400 -91 -37 -85 0
-400 -91 -52 -94 0
-400 -91 112 220 274 0
-400 -94 20 0
-400 -94 80 0
-400 -94 -55 0
-400 -94 -58 0
-400 -94 -61 0
-400 -94 -1 -70 0
-400 -94 -37 -88 0
-400 -94 -52 -97 0
-400 -94 115 223 277 0
-400 -19 -91 -76 0
-400 -19 -94 -79 0
-402 103 0
-402 -97 0
-402 -91 23 0
-402 -91 77 0
-402 -91 -58 0
-402 -91 -61 0
-402 -91 -4 -67 0
-402 -91 -37 -85 0
-402 -91 -40 -85 0
-402 -91 -52 -94 0
-402 -91 -55 -94 0
-402 -91 121 229 283 0
-402 -94 23 0
-402 -94 80 0
-402 -94 -58 0
-402 -94 -61 0
-402 -94 -4 -70 0
-402 -94 -37 -88 0
-402 -94 -40 -88 0
-402 -94 -52 -97 0
-402 -94 -55 -97 0
-402 -94 124 232 286 0
-402 -22 -91 -76 0
-402 -22 -94 -79 0
-404 103 0
-404 -97 0
-404 -91 26 0
-404 -91 77 0
-404 -91 -61 0
-404 -91 -7 -67 0
-404 -91 -40 -85 0
-404 -91 -43 -85 0
-404 -91 -52 -94 0
-404 -91 -55 -94 0
-404 -91 -58 -94 0
-404 -91 130 238 292 0
-404 -94 26 0
-404 -94 80 0
-404 -94 -61 0
-404 -94 -7 -70 0
-404 -94 -40 -88 0
-404 -94 -43 -88 0
-404 -94 -52 -97 0
-404 -94 -55 -97 0
-404 -94 -58 -97 0
-404 -94 133 241 295 0
-404 -25 -91 -76 0
-404 -25 -94 -79 0
-406 103 0
-406 -97 0
-406 -91 29 0
-406 -91 77 0
-406 -91 -52 0
-406 -91 -10 -67 0
-406 -91 -43 -85 0
-406 -91 -46 -85 0
-406 -91 -55 -94 0
-406 -91 -58 -94 0
-406 -91 -61 -94 0
-406 -91 139 247 301 0
-406 -94 29 0
-406 -94 80 0
-406 -94 -52 0
-406 -94 -10 -70 0
-406 -94 -43 -88 0
-406 -94 -46 -88 0
-406 -94 -55 -97 0
-406 -94 -58 -97 0
-406 -94 -61 -97 0
-406 -94 142 250 304 0
-406 -28 -91 -76 0
-406 -28 -94 -79 0
-408 103 0
-408 -97 0
-408 -91 32 0
-408 -91 77 0
-408 -91 -52 0
-408 -91 -55 0
-408 -91 -13 -67 0
-408 -91 -46 -85 0
-408 -91 -49 -85 0
-408 -91 -58 -94 0
-408 -91 -61 -94 0
-408 -91 148 256 310 0
-408 -94 32 0
-408 -94 80 0
-408 -94 -52 0
-408 -94 -55 0
-408 -94 -13 -70 0
-408 -94 -46 -88 0
-408 -94 -49 -88 0
-408 -94 -58 -97 0
-408 -94 -61 -97 0
-408 -94 151 259 313 0
-408 -31 -91 -76 0
-408 -31 -94 -79 0
-410 103 0
-410 -97 0
-410 -91 35 0
-410 -91 77 0
-410 -91 -52 0
-410 -91 -55 0
-410 -91 -58 0
-410 -91 -16 -67 0
-410 -91 -49 -85 0
-410 -91 -61 -94 0
-410 -91 157 265 319 0
-410 -94 35 0
-410 -94 80 0
-410 -94 -52 0
-410 -94 -55 0
-410 -94 -58 0
-410 -94 -16 -70 0
-410 -94 -49 -88 0
-410 -94 -61 -97 0
-410 -94 160 268 322 0
-410 -34 -91 -76 0
-410 -34 -94 -79 0
-412 103 0
-412 20 0
-412 74 0
-412 -19 -73 0
-412 -1 -64 0
-412 -37 -82 0
-412 -52 -91 0
-414 103 0
-414 23 0
-414 74 0
-414 -22 -73 0
-414 -4 -64 0
-414 -37 -82 0
-414 -40 -82 0
-414 -52 -91 0
-414 -55 -91 0
-416 103 0
-416 26 0
-416 74 0
-416 -25 -73 0
-416 -7 -64 0
-416 -40 -82 0
-416 -43 -82 0
-416 -52 -91 0
-416 -55 -91 0
-416 -58 -91 0
-418 103 0
-418 29 0
-418 74 0
-418 -28 -73 0
-418 -10 -64 0
-418 -43 -82 0
-418 -46 -82 0
-418 -55 -91 0
-418 -58 -91 0
-418 -61 -91 0
-420 103 0
-420 32 0
-420 74 0
-420 -31 -73 0
-420 -13 -64 0
-420 -46 -82 0
-420 -49 -82 0
-420 -58 -91 0
-420 -61 -91 0
-422 103 0
-422 35 0
-422 74 0
-422 -34 -73 0
-422 -16 -64 0
-422 -49 -82 0
-422 -61 -91 0
-424 106 0
-424 -70 0
-424 -64 38 0
-424 -64 86 0
-424 -64 -7 0
-424 -64 -10 0
-424 -64 -13 0
-424 -64 -16 0
-424 -64 -1 -67 0
-424 -64 -4 -67 0
-424 -64 -19 -76 0
-424 -64 -22 -76 0
-424 -64 -52 -94 0
-424 -64 -55 -94 0
-424 -64 112 166 274 121 175 283 0
-424 -67 38 0
-424 -67 89 0
-424 -67 -7 0
-424 -67 -10 0
-424 -67 -13 0
-424 -67 -16 0
-424 -67 -1 -70 0
-424 -67 -4 -70 0
-424 -67 -19 -79 0
-424 -67 -22 -79 0
-424 -67 -52 -97 0
-424 -67 -55 -97 0
-424 -67 115 169 277 124 178 286 0
-424 -37 -64 -85 0
-424 -37 -67 -88 0
-426 106 0
-426 -70 0
-426 -64 41 0
-426 -64 86 0
-426 -64 -1 0
-426 -64 -10 0
-426 -64 -13 0
-426 -64 -16 0
-426 -64 -4 -67 0
-426 -64 -7 -67 0
-426 -64 -22 -76 0
-426 -64 -25 -76 0
-426 -64 -52 -94 0
-426 -64 -55 -94 0
-426 -64 -58 -94 0
-426 -64 121 175 283 130 184 292 0
-426 -67 41 0
-426 -67 89 0
-426 -67 -1 0
-426 -67 -10 0
-426 -67 -13 0
-426 -67 -16 0
-426 -67 -4 -70 0
-426 -67 -7 -70 0
-426 -67 -22 -79 0
-426 -67 -25 -79 0
-426 -67 -52 -97 0
-426 -67 -55 -97 0
-426 -67 -58 -97 0
-426 -67 124 178 286 133 187 295 0
-426 -40 -64 -85 0
-426 -40 -67 -88 0
-428 106 0
-428 -70 0
-428 -64 44 0
-428 -64 86 0
-428 -64 -1 0
-428 -64 -4 0
-428 -64 -13 0
-428 -64 -16 0
-428 -64 -7 -67 0
-428 -64 -10 -67 0
-428 -64 -25 -76 0
-428 -64 -28 -76 0
-428 -64 -52 -94 0
-428 -64 -55 -94 0
-428 -64 -58 -94 0
-428 -64 -61 -94 0
-428 -64 130 184 292 139 193 301 0
-428 -67 44 0
-428 -67 89 0
-428 -67 -1 0
-428 -67 -4 0
-428 -67 -13 0
-428 -67 -16 0
-428 -67 -7 -70 0
-428 -67 -10 -70 0
-428 -67 -25 -79 0
-428 -67 -28 -79 0
-428 -67 -52 -97 0
-428 -67 -55 -97 0
-428 -67 -58 -97 0
-428 -67 -61 -97 0
-428 -67 133 187 295 142 196 304 0
-428 -43 -64 -85 0
-428 -43 -67 -88 0
-430 106 0
-430 -70 0
-430 -64 47 0
-430 -64 86 0
-430 -64 -1 0
-430 -64 -4 0
-430 -64 -7 0
-430 -64 -16 0
-430 -64 -10 -67 0
-430 -64 -13 -67 0
-430 -64 -28 -76 0
-430 -64 -31 -76 0
-430 -64 -55 -94 0
-430 -64 -58 -94 0
-430 -64 -61 -94 0
-430 -64 139 193 301 148 202 310 0
-430 -67 47 0
-430 -67 89 0
-430 -67 -1 0
-430 -67 -4 0
-430 -67 -7 0
-430 -67 -16 0
-430 -67 -10 -70 0
-430 -67 -13 -70 0
-430 -67 -28 -79 0
-430 -67 -31 -79 0
-430 -67 -55 -97 0
-430 -67 -58 -97 0
-430 -67 -61 -97 0
-430 -67 142 196 304 151 205 313 0
-430 -46 -64 -85 0
-430 -46 -67 -88 0
-432 106 0
-432 -70 0
-432 -64 50 0
-432 -64 86 0
-432 -64 -1 0
-432 -64 -4 0
-432 -64 -7 0
-432 -64 -10 0
-432 -64 -13 -67 0
-432 -64 -16 -67 0
-432 -64 -31 -76 0
-432 -64 -34 -76 0
-432 -64 -58 -94 0
-432 -64 -61 -94 0
-432 -64 148 202 310 157 211 319 0
-432 -67 50 0
-432 -67 89 0
-432 -67 -1 0
-432 -67 -4 0
-432 -67 -7 0
-432 -67 -10 0
-432 -67 -13 -70 0
-432 -67 -16 -70 0
-432 -67 -31 -79 0
-432 -67 -34 -79 0
-432 -67 -58 -97 0
-432 -67 -61 -97 0
-432 -67 151 205 313 160 214 322 0
-432 -49 -64 -85 0
-432 -49 -67 -88 0
-434 106 0
-434 -79 0
-434 -73 38 0
-434 -73 86 0
-434 -73 -25 0
-434 -73 -28 0
-434 -73 -31 0
-434 -73 -34 0
-434 -73 -1 -67 0
-434 -73 -4 -67 0
-434 -73 -19 -76 0
-434 -73 -22 -76 0
-434 -73 -52 -94 0
-434 -73 -55 -94 0
-434 -73 112 166 274 121 175 283 0
-434 -76 38 0
-434 -76 89 0
-434 -76 -25 0
-434 -76 -28 0
-434 -76 -31 0
-434 -76 -34 0
-434 -76 -1 -70 0
-434 -76 -4 -70 0
-434 -76 -19 -79 0
-434 -76 -22 -79 0
-434 -76 -52 -97 0
-434 -76 -55 -97 0
-434 -76 115 169 277 124 178 286 0
-434 -37 -73 -85 0
-434 -37 -76 -88 0
-436 106 0
-436 -79 0
-436 -73 41 0
-436 -73 86 0
-436 -73 -19 0
-436 -73 -28 0
-436 -73 -31 0
-436 -73 -34 0
-436 -73 -4 -67 0
-436 -73 -7 -67 0
-436 -73 -22 -76 0
-436 -73 -25 -76 0
-436 -73 -52 -94 0
-436 -73 -55 -94 0
-436 -73 -58 -94 0
-436 -73 121 175 283 130 184 292 0
-436 -76 41 0
-436 -76 89 0
-436 -76 -19 0
-436 -76 -28 0
-436 -76 -31 0
-436 -76 -34 0
-436 -76 -4 -70 0
-436 -76 -7 -70 0
-436 -76 -22 -79 0
-436 -76 -25 -79 0
-436 -76 -52 -97 0
-436 -76 -55 -97 0
-436 -76 -58 -97 0
-436 -76 124 178 286 133 187 295 0
-436 -40 -73 -85 0
-436 -40 -76 -88 0
-438 106 0
-438 -79 0
-438 -73 44 0
-438 -73 86 0
-438 -73 -19 0
-438 -73 -22 0
-438 -73 -31 0
-438 -73 -34 0
-438 -73 -7 -67 0
-438 -73 -10 -67 0
-438 -73 -25 -76 0
-438 -73 -28 -76 0
-438 -73 -52 -94 0
-438 -73 -55 -94 0
-438 -73 -58 -94 0
-438 -73 -61 -94 0
-438 -73 130 184 292 139 193 301 0
-438 -76 44 0
-438 -76 89 0
-438 -76 -19 0
-438 -76 -22 0
-438 -76 -31 0
-438 -76 -34 0
-438 -76 -7 -70 0
-438 -76 -10 -70 0
-438 -76 -25 -79 0
-438 -76 -28 -79 0
-438 -76 -52 -97 0
-438 -76 -55 -97 0
-438 -76 -58 -97 0
-438 -76 -61 -97 0
-438 -76 133 187 295 142 196 304 0
-438 -43 -73 -85 0
-438 -43 -76 -88 0
-440 106 0
-440 -79 0
-440 -73 47 0
-440 -73 86 0
-440 -73 -19 0
-440 -73 -22 0
-440 -73 -25 0
-440 -73 -34 0
-440 -73 -10 -67 0
-440 -73 -13 -67 0
-440 -73 -28 -76 0
-440 -73 -31 -76 0
-440 -73 -55 -94 0
-440 -73 -58 -94 0
-440 -73 -61 -94 0
-440 -73 139 193 301 148 202 310 0
-440 -76 47 0
-440 -76 89 0
-440 -76 -19 0
-440 -76 -22 0
-440 -76 -25 0
-440 -76 -34 0
-440 -76 -10 -70 0
-440 -76 -13 -70 0
-440 -76 -28 -79 0
-440 -76 -31 -79 0
-440 -76 -55 -97 0
-440 -76 -58 -97 0
-440 -76 -61 -97 0
-440 -76 142 196 304 151 205 313 0
-440 -46 -73 -85 0
-440 -46 -76 -88 0
-442 106 0
-442 -79 0
-442 -73 50 0
-442 -73 86 0
-442 -73 -19 0
-442 -73 -22 0
-442 -73 -25 0
-442 -73 -28 0
-442 -73 -13 -67 0
-442 -73 -16 -67 0
-442 -73 -31 -76 0
-442 -73 -34 -76 0
-442 -73 -58 -94 0
-442 -73 -61 -94 0
-442 -73 148 202 310 157 211 319 0
-442 -76 50 0
-442 -76 89 0
-442 -76 -19 0
-442 -76 -22 0
-442 -76 -25 0
-442 -76 -28 0
-442 -76 -13 -70 0
-442 -76 -16 -70 0
-442 -76 -31 -79 0
-442 -76 -34 -79 0
-442 -76 -58 -97 0
-442 -76 -61 -97 0
-442 -76 151 205 313 160 214 322 0
-442 -49 -73 -85 0
-442 -49 -76 -88 0
-444 106 0
-444 -97 0
-444 -91 38 0
-444 -91 86 0
-444 -91 -58 0
-444 -91 -61 0
-444 -91 -1 -67 0
-444 -91 -4 -67 0
-444 -91 -19 -76 0
-444 -91 -22 -76 0
-444 -91 -52 -94 0
-444 -91 -55 -94 0
-444 -91 112 166 274 121 175 283 0
-444 -94 38 0
-444 -94 89 0
-444 -94 -58 0
-444 -94 -61 0
-444 -94 -1 -70 0
-444 -94 -4 -70 0
-444 -94 -19 -79 0
-444 -94 -22 -79 0
-444 -94 -52 -97 0
-444 -94 -55 -97 0
-444 -94 115 169 277 124 178 286 0
-444 -37 -91 -85 0
-444 -37 -94 -88 0
-446 106 0
-446 -97 0
-446 -91 41 0
-446 -91 86 0
-446 -91 -61 0
-446 -91 -4 -67 0
-446 -91 -7 -67 0
-446 -91 -22 -76 0
-446 -91 -25 -76 0
-446 -91 -52 -94 0
-446 -91 -55 -94 0
-446 -91 -58 -94 0
-446 -91 121 175 283 130 184 292 0
-446 -94 41 0
-446 -94 89 0
-446 -94 -61 0
-446 -94 -4 -70 0
-446 -94 -7 -70 0
-446 -94 -22 -79 0
-446 -94 -25 -79 0
-446 -94 -52 -97 0
-446 -94 -55 -97 0
-446 -94 -58 -97 0
-446 -94 124 178 286 133 187 295 0
-446 -40 -91 -85 0
-446 -40 -94 -88 0
-448 106 0
-448 -97 0
-448 -91 44 0
-448 -91 86 0
-448 -91 -7 -67 0
-448 -91 -10 -67 0
-448 -91 -25 -76 0
-448 -91 -28 -76 0
-448 -91 -52 -94 0
-448 -91 -55 -94 0
-448 -91 -58 -94 0
-448 -91 -61 -94 0
-448 -91 130 184 292 139 193 301 0
-448 -94 44 0
-448 -94 89 0
-448 -94 -7 -70 0
-448 -94 -10 -70 0
-448 -94 -25 -79 0
-448 -94 -28 -79 0
-448 -94 -52 -97 0
-448 -94 -55 -97 0
-448 -94 -58 -97 0
-448 -94 -61 -97 0
-448 -94 133 187 295 142 196 304 0
-448 -43 -91 -85 0
-448 -43 -94 -88 0
-450 106 0
-450 -97 0
-450 -91 47 0
-450 -91 86 0
-450 -91 -52 0
-450 -91 -10 -67 0
-450 -91 -13 -67 0
-450 -91 -28 -76 0
-450 -91 -31 -76 0
-450 -91 -55 -94 0
-450 -91 -58 -94 0
-450 -91 -61 -94 0
-450 -91 139 193 301 148 202 310 0
-450 -94 47 0
-450 -94 89 0
-450 -94 -52 0
-450 -94 -10 -70 0
-450 -94 -13 -70 0
-450 -94 -28 -79 0
-450 -94 -31 -79 0
-450 -94 -55 -97 0
-450 -94 -58 -97 0
-450 -94 -61 -97 0
-450 -94 142 196 304 151 205 313 0
-450 -46 -91 -85 0
-450 -46 -94 -88 0
-452 106 0
-452 -97 0
-452 -91 50 0
-452 -91 86 0
-452 -91 -52 0
-452 -91 -55 0
-452 -91 -13 -67 0
-452 -91 -16 -67 0
-452 -91 -31 -76 0
-452 -91 -34 -76 0
-452 -91 -58 -94 0
-452 -91 -61 -94 0
-452 -91 148 202 310 157 211 319 0
-452 -94 50 0
-452 -94 89 0
-452 -94 -52 0
-452 -94 -55 0
-452 -94 -13 -70 0
-452 -94 -16 -70 0
-452 -94 -31 -79 0
-452 -94 -34 -79 0
-452 -94 -58 -97 0
-452 -94 -61 -97 0
-452 -94 151 205 313 160 214 322 0
-452 -49 -91 -85 0
-452 -49 -94 -88 0
-454 106 0
-454 38 0
-454 83 0
-454 -37 -82 0
-454 -1 -64 0
-454 -4 -64 0
-454 -19 -73 0
-454 -22 -73 0
-454 -52 -91 0
-454 -55 -91 0
-456 106 0
-456 41 0
-456 83 0
-456 -40 -82 0
-456 -4 -64 0
-456 -7 -64 0
-456 -22 -73 0
-456 -25 -73 0
-456 -52 -91 0
-456 -55 -91 0
-456 -58 -91 0
-458 106 0
-458 44 0
-458 83 0
-458 -43 -82 0
-458 -7 -64 0
-458 -10 -64 0
-458 -25 -73 0
-458 -28 -73 0
-458 -52 -91 0
-458 -55 -91 0
-458 -58 -91 0
-458 -61 -91 0
-460 106 0
-460 47 0
-460 83 0
-460 -46 -82 0
-460 -10 -64 0
-460 -13 -64 0
-460 -28 -73 0
-460 -31 -73 0
-460 -55 -91 0
-460 -58 -91 0
-460 -61 -91 0
-462 106 0
-462 50 0
-462 83 0
-462 -49 -82 0
-462 -13 -64 0
-462 -16 -64 0
-462 -31 -73 0
-462 -34 -73 0
-462 -58 -91 0
-462 -61 -91 0
-464 109 0
-464 -70 0
-464 -64 53 0
-464 -64 95 0
-464 -64 -10 0
-464 -64 -13 0
-464 -64 -16 0
-464 -64 -1 -67 0
-464 -64 -4 -67 0
-464 -64 -7 -67 0
-464 -64 -19 -76 0
-464 -64 -22 -76 0
-464 -64 -25 -76 0
-464 -64 -37 -85 0
-464 -64 -40 -85 0
-464 -64 -43 -85 0
-464 -64 112 166 220 121 175 229 0
-464 -64 112 166 220 130 184 238 0
-464 -64 121 175 229 130 184 238 0
-464 -67 53 0
-464 -67 98 0
-464 -67 -10 0
-464 -67 -13 0
-464 -67 -16 0
-464 -67 -1 -70 0
-464 -67 -4 -70 0
-464 -67 -7 -70 0
-464 -67 -19 -79 0
-464 -67 -22 -79 0
-464 -67 -25 -79 0
-464 -67 -37 -88 0
-464 -67 -40 -88 0
-464 -67 -43 -88 0
-464 -67 115 169 223 124 178 232 0
-464 -67 115 169 223 133 187 241 0
-464 -67 124 178 232 133 187 241 0
-464 -52 -64 -94 0
-464 -52 -67 -97 0
-466 109 0
-466 -70 0
-466 -64 56 0
-466 -64 95 0
-466 -64 -1 0
-466 -64 -13 0
-466 -64 -16 0
-466 -64 -4 -67 0
-466 -64 -7 -67 0
-466 -64 -10 -67 0
-466 -64 -22 -76 0
-466 -64 -25 -76 0
-466 -64 -28 -76 0
-466 -64 -37 -85 0
-466 -64 -40 -85 0
-466 -64 -43 -85 0
-466 -64 -46 -85 0
-466 -64 121 175 229 130 184 238 0
-466 -64 121 175 229 139 193 247 0
-466 -64 130 184 238 139 193 247 0
-466 -67 56 0
-466 -67 98 0
-466 -67 -1 0
-466 -67 -13 0
-466 -67 -16 0
-466 -67 -4 -70 0
-466 -67 -7 -70 0
-466 -67 -10 -70 0
-466 -67 -22 -79 0
-466 -67 -25 -79 0
-466 -67 -28 -79 0
-466 -67 -37 -88 0
-466 -67 -40 -88 0
-466 -67 -43 -88 0
-466 -67 -46 -88 0
-466 -67 124 178 232 133 187 241 0
-466 -67 124 178 232 142 196 250 0
-466 -67 133 187 241 142 196 250 0
-466 -55 -64 -94 0
-466 -55 -67 -97 0
-468 109 0
-468 -70 0
-468 -64 59 0
-468 -64 95 0
-468 -64 -1 0
-468 -64 -4 0
-468 -64 -16 0
-468 -64 -7 -67 0
-468 -64 -10 -67 0
-468 -64 -13 -67 0
-468 -64 -25 -76 0
-468 -64 -28 -76 0
-468 -64 -31 -76 0
-468 -64 -40 -85 0
-468 -64 -43 -85 0
-468 -64 -46 -85 0
-468 -64 -49 -85 0
-468 -64 130 184 238 139 193 247 0
-468 -64 130 184 238 148 202 256 0
-468 -64 139 193 247 148 202 256 0
-468 -67 59 0
-468 -67 98 0
-468 -67 -1 0
-468 -67 -4 0
-468 -67 -16 0
-468 -67 -7 -70 0
-468 -67 -10 -70 0
-468 -67 -13 -70 0
-468 -67 -25 -79 0
-468 -67 -28 -79 0
-468 -67 -31 -79 0
-468 -67 -40 -88 0
-468 -67 -43 -88 0
-468 -67 -46 -88 0
-468 -67 -49 -88 0
-468 -67 133 187 241 142 196 250 0
-468 -67 133 187 241 151 205 259 0
-468 -67 142 196 250 151 205 259 0
-468 -58 -64 -94 0
-468 -58 -67 -97 0
-470 109 0
-470 -70 0
-470 -64 62 0
-470 -64 95 0
-470 -64 -1 0
-470 -64 -4 0
-470 -64 -7 0
-470 -64 -10 -67 0
-470 -64 -13 -67 0
-470 -64 -16 -67 0
-470 -64 -28 -76 0
-470 -64 -31 -76 0
-470 -64 -34 -76 0
-470 -64 -43 -85 0
-470 -64 -46 -85 0
-470 -64 -49 -85 0
-470 -64 139 193 247 148 202 256 0
-470 -64 139 193 247 157 211 265 0
-470 -64 148 202 256 157 211 265 0
-470 -67 62 0
-470 -67 98 0
-470 -67 -1 0
-470 -67 -4 0
-470 -67 -7 0
-470 -67 -10 -70 0
-470 -67 -13 -70 0
-470 -67 -16 -70 0
-470 -67 -28 -79 0
-470 -67 -31 -79 0
-470 -67 -34 -79 0
-470 -67 -43 -88 0
-470 -67 -46 -88 0
-470 -67 -49 -88 0
-470 -67 142 196 250 151 205 259 0
-470 -67 142 196 250 160 214 268 0
-470 -67 151 205 259 160 214 268 0
-470 -61 -64 -94 0
-470 -61 -67 -97 0
-472 109 0
-472 -79 0
-472 -73 53 0
-472 -73 95 0
-472 -73 -28 0
-472 -73 -31 0
-472 -73 -34 0
-472 -73 -1 -67 0
-472 -73 -4 -67 0
-472 -73 -7 -67 0
-472 -73 -19 -76 0
-472 -73 -22 -76 0
-472 -73 -25 -76 0
-472 -73 -37 -85 0
-472 -73 -40 -85 0
-472 -73 -43 -85 0
-472 -73 112 166 220 121 175 229 0
-472 -73 112 166 220 130 184 238 0
-472 -73 121 175 229 130 184 238 0
-472 -76 53 0
-472 -76 98 0
-472 -76 -28 0
-472 -76 -31 0
-472 -76 -34 0
-472 -76 -1 -70 0
-472 -76 -4 -70 0
-472 -76 -7 -70 0
-472 -76 -19 -79 0
-472 -76 -22 -79 0
-472 -76 -25 -79 0
-472 -76 -37 -88 0
-472 -76 -40 -88 0
-472 -76 -43 -88 0
-472 -76 115 169 223 124 178 232 0
-472 -76 115 169 223 133 187 241 0
-472 -76 124 178 232 133 187 241 0
-472 -52 -73 -94 0
-472 -52 -76 -97 0
-474 109 0
-474 -79 0
-474 -73 56 0
-474 -73 95 0
-474 -73 -19 0
-474 -73 -31 0
-474 -73 -34 0
-474 -73 -4 -67 0
-474 -73 -7 -67 0
-474 -73 -10 -67 0
-474 -73 -22 -76 0
-474 -73 -25 -76 0
-474 -73 -28 -76 0
-474 -73 -37 -85 0
-474 -73 -40 -85 0
-474 -73 -43 -85 0
-474 -73 -46 -85 0
-474 -73 121 175 229 130 184 238 0
-474 -73 121 175 229 139 193 247 0
-474 -73 130 184 238 139 193 247 0
-474 -76 56 0
-474 -76 98 0
-474 -76 -19 0
-474 -76 -31 0
-474 -76 -34 0
-474 -76 -4 -70 0
-474 -76 -7 -70 0
-474 -76 -10 -70 0
-474 -76 -22 -79 0
-474 -76 -25 -79 0
-474 -76 -28 -79 0
-474 -76 -37 -88 0
-474 -76 -40 -88 0
-474 -76 -43 -88 0
-474 -76 -46 -88 0
-474 -76 124 178 232 133 187 241 0
-474 -76 124 178 232 142 196 250 0
-474 -76 133 187 241 142 196 250 0
-474 -55 -73 -94 0
-474 -55 -76 -97 0
-476 109 0
-476 -79 0
-476 -73 59 0
-476 -73 95 0
-476 -73 -19 0
-476 -73 -22 0
-476 -73 -34 0
-476 -73 -7 -67 0
-476 -73 -10 -67 0
-476 -73 -13 -67 0
-476 -73 -25 -76 0
-476 -73 -28 -76 0
-476 -73 -31 -76 0
-476 -73 -40 -85 0
-476 -73 -43 -85 0
-476 -73 -46 -85 0
-476 -73 -49 -85 0
-476 -73 130 184 238 139 193 247 0
-476 -73 130 184 238 148 202 256 0
-476 -73 139 193 247 148 202 256 0
-476 -76 59 0
-476 -76 98 0
-476 -76 -19 0
-476 -76 -22 0
-476 -76 -34 0
-476 -76 -7 -70 0
-476 -76 -10 -70 0
-476 -76 -13 -70 0
-476 -76 -25 -79 0
-476 -76 -28 -79 0
-476 -76 -31 -79 0
-476 -76 -40 -88 0
-476 -76 -43 -88 0
-476 -76 -46 -88 0
-476 -76 -49 -88 0
-476 -76 133 187 241 142 196 250 0
-476 -76 133 187 241 151 205 259 0
-476 -76 142 196 250 151 205 259 0
-476 -58 -73 -94 0
-476 -58 -76 -97 0
-478 109 0
-478 -79 0
-478 -73 62 0
-478 -73 95 0
-478 -73 -19 0
-478 -73 -22 0
-478 -73 -25 0
-478 -73 -10 -67 0
-478 -73 -13 -67 0
-478 -73 -16 -67 0
-478 -73 -28 -76 0
-478 -73 -31 -76 0
-478 -73 -34 -76 0
-478 -73 -43 -85 0
-478 -73 -46 -85 0
-478 -73 -49 -85 0
-478 -73 139 193 247 148 202 256 0
-478 -73 139 193 247 157 211 265 0
-478 -73 148 202 256 157 211 265 0
-478 -76 62 0
-478 -76 98 0
-478 -76 -19 0
-478 -76 -22 0
-478 -76 -25 0
-478 -76 -10 -70 0
-478 -76 -13 -70 0
-478 -76 -16 -70 0
-478 -76 -28 -79 0
-478 -76 -31 -79 0
-478 -76 -34 -79 0
-478 -76 -43 -88 0
-478 -76 -46 -88 0
-478 -76 -49 -88 0
-478 -76 142 196 250 151 205 259 0
-478 -76 142 196 250 160 214 268 0
-478 -76 151 205 259 160 214 268 0
-478 -61 -73 -94 0
-478 -61 -76 -97 0
-480 109 0
-480 -88 0
-480 -82 53 0
-480 -82 95 0
-480 -82 -46 0
-480 -82 -49 0
-480 -82 -1 -67 0
-480 -82 -4 -67 0
-480 -82 -7 -67 0
-480 -82 -19 -76 0
-480 -82 -22 -76 0
-480 -82 -25 -76 0
-480 -82 -37 -85 0
-480 -82 -40 -85 0
-480 -82 -43 -85 0
-480 -82 112 166 220 121 175 229 0
-480 -82 112 166 220 130 184 238 0
-480 -82 121 175 229 130 184 238 0
-480 -85 53 0
-480 -85 98 0
-480 -85 -46 0
-480 -85 -49 0
-480 -85 -1 -70 0
-480 -85 -4 -70 0
-480 -85 -7 -70 0
-480 -85 -19 -79 0
-480 -85 -22 -79 0
-480 -85 -25 -79 0
-480 -85 -37 -88 0
-480 -85 -40 -88 0
-480 -85 -43 -88 0
-480 -85 115 169 223 124 178 232 0
-480 -85 115 169 223 133 187 241 0
-480 -85 124 178 232 133 187 241 0
-480 -52 -82 -94 0
-480 -52 -85 -97 0
-482 109 0
-482 -88 0
-482 -82 56 0
-482 -82 95 0
-482 -82 -49 0
-482 -82 -4 -67 0
-482 -82 -7 -67 0
-482 -82 -10 -67 0
-482 -82 -22 -76 0
-482 -82 -25 -76 0
-482 -82 -28 -76 0
-482 -82 -37 -85 0
-482 -82 -40 -85 0
-482 -82 -43 -85 0
-482 -82 -46 -85 0
-482 -82 121 175 229 130 184 238 0
-482 -82 121 175 229 139 193 247 0
-482 -82 130 184 238 139 193 247 0
-482 -85 56 0
-482 -85 98 0
-482 -85 -49 0
-482 -85 -4 -70 0
-482 -85 -7 -70 0
-482 -85 -10 -70 0
-482 -85 -22 -79 0
-482 -85 -25 -79 0
-482 -85 -28 -79 0
-482 -85 -37 -88 0
-482 -85 -40 -88 0
-482 -85 -43 -88 0
-482 -85 -46 -88 0
-482 -85 124 178 232 133 187 241 0
-482 -85 124 178 232 142 196 250 0
-482 -85 133 187 241 142 196 250 0
-482 -55 -82 -94 0
-482 -55 -85 -97 0
-484 109 0
-484 -88 0
-484 -82 59 0
-484 -82 95 0
-484 -82 -37 0
-484 -82 -7 -67 0
-484 -82 -10 -67 0
-484 -82 -13 -67 0
-484 -82 -25 -76 0
-484 -82 -28 -76 0
-484 -82 -31 -76 0
-484 -82 -40 -85 0
-484 -82 -43 -85 0
-484 -82 -46 -85 0
-484 -82 -49 -85 0
-484 -82 130 184 238 139 193 247 0
-484 -82 130 184 238 148 202 256 0
-484 -82 139 193 247 148 202 256 0
-484 -85 59 0
-484 -85 98 0
-484 -85 -37 0
-484 -85 -7 -70 0
-484 -85 -10 -70 0
-484 -85 -13 -70 0
-484 -85 -25 -79 0
-484 -85 -28 -79 0
-484 -85 -31 -79 0
-484 -85 -40 -88 0
-484 -85 -43 -88 0
-484 -85 -46 -88 0
-484 -85 -49 -88 0
-484 -85 133 187 241 142 196 250 0
-484 -85 133 187 241 151 205 259 0
-484 -85 142 196 250 151 205 259 0
-484 -58 -82 -94 0
-484 -58 -85 -97 0
-486 109 0
-486 -88 0
-486 -82 62 0
-486 -82 95 0
-486 -82 -37 0
-486 -82 -40 0
-486 -82 -10 -67 0
-486 -82 -13 -67 0
-486 -82 -16 -67 0
-486 -82 -28 -76 0
-486 -82 -31 -76 0
-486 -82 -34 -76 0
-486 -82 -43 -85 0
-486 -82 -46 -85 0
-486 -82 -49 -85 0
-486 -82 139 193 247 148 202 256 0
-486 -82 139 193 247 157 211 265 0
-486 -82 148 202 256 157 211 265 0
-486 -85 62 0
-486 -85 98 0
-486 -85 -37 0
-486 -85 -40 0
-486 -85 -10 -70 0
-486 -85 -13 -70 0
-486 -85 -16 -70 0
-486 -85 -28 -79 0
-486 -85 -31 -79 0
-486 -85 -34 -79 0
-486 -85 -43 -88 0
-486 -85 -46 -88 0
-486 -85 -49 -88 0
-486 -85 142 196 250 151 205 259 0
-486 -85 142 196 250 160 214 268 0
-486 -85 151 205 259 160 214 268 0
-486 -61 -82 -94 0
-486 -61 -85 -97 0
-488 109 0
-488 53 0
-488 92 0
-488 -52 -91 0
-488 -1 -64 0
-488 -4 -64 0
-488 -7 -64 0
-488 -19 -73 0
-488 -22 -73 0
-488 -25 -73 0
-488 -37 -82 0
-488 -40 -82 0
-488 -43 -82 0
-490 109 0
-490 56 0
-490 92 0
-490 -55 -91 0
-490 -4 -64 0
-490 -7 -64 0
-490 -10 -64 0
-490 -22 -73 0
-490 -25 -73 0
-490 -28 -73 0
-490 -37 -82 0
-490 -40 -82 0
-490 -43 -82 0
-490 -46 -82 0
-492 109 0
-492 59 0
-492 92 0
-492 -58 -91 0
-492 -7 -64 0
-492 -10 -64 0
-492 -13 -64 0
-492 -25 -73 0
-492 -28 -73 0
-492 -31 -73 0
-492 -40 -82 0
-492 -43 -82 0
-492 -46 -82 0
-492 -49 -82 0
-494 109 0
-494 62 0
-494 92 0
-494 -61 -91 0
-494 -10 -64 0
-494 -13 -64 0
-494 -16 -64 0
-494 -28 -73 0
-494 -31 -73 0
-494 -34 -73 0
-494 -43 -82 0
-494 -46 -82 0
-494 -49 -82 0
329 331 333 335 337 339 341 343 345 347 349 351 353 355 357 359 361 363 365 367 369 371 373 375 377 379 381 383 385 387 389 391 393 395 397 399 401 403 405 407 409 411 413 415 417 419 421 423 425 427 429 431 433 435 437 439 441 443 445 447 449 451 453 455 457 459 461 463 465 467 469 471 473 475 477 479 481 483 485 487 489 491 493 495 0
-329 -331 0
-329 -333 0
-329 -335 0
-329 -337 0
-329 -339 0
-329 -341 0
-329 -343 0
-329 -345 0
-329 -347 0
-329 -349 0
-329 -351 0
-329 -353 0
-329 -355 0
-329 -357 0
-329 -359 0
-329 -361 0
-329 -363 0
-329 -365 0
-329 -367 0
-329 -369 0
-329 -371 0
-329 -373 0
-329 -375 0
-329 -377 0
-329 -379 0
-329 -381 0
-329 -383 0
-329 -385 0
-329 -387 0
-329 -389 0
-329 -391 0
-329 -393 0
-329 -395 0
-329 -397 0
-329 -399 0
-329 -401 0
-329 -403 0
-329 -405 0
-329 -407 0
-329 -409 0
-329 -411 0
-329 -413 0
-329 -415 0
-329 -417 0
-329 -419 0
-329 -421 0
-329 -423 0
-329 -425 0
-329 -427 0
-329 -429 0
-329 -431 0
-329 -433 0
-329 -435 0
-329 -437 0
-329 -439 0
-329 -441 0
-329 -443 0
-329 -445 0
-329 -447 0
-329 -449 0
-329 -451 0
-329 -453 0
-329 -455 0
-329 -457 0
-329 -459 0
-329 -461 0
-329 -463 0
-329 -465 0
-329 -467 0
-329 -469 0
-329 -471 0
-329 -473 0
-329 -475 0
-329 -477 0
-329 -479 0
-329 -481 0
-329 -483 0
-329 -485 0
-329 -487 0
-329 -489 0
-329 -491 0
-329 -493 0
-329 -495 0
-331 -333 0
-331 -335 0
-331 -337 0
-331 -339 0
-331 -341 0
-331 -343 0
-331 -345 0
-331 -347 0
-331 -349 0
-331 -351 0
-331 -353 0
-331 -355 0
-331 -357 0
-331 -359 0
-331 -361 0
-331 -363 0
-331 -365 0
-331 -367 0
-331 -369 0
-331 -371 0
-331 -373 0
-331 -375 0
-331 -377 0
-331 -379 0
-331 -381 0
-331 -383 0
-331 -385 0
-331 -387 0
-331 -389 0
-331 -391 0
-331 -393 0
-331 -395 0
-331 -397 0
-331 -399 0
-331 -401 0
-331 -403 0
-331 -405 0
-331 -407 0
-331 -409 0
-331 -411 0
-331 -413 0
-331 -415 0
-331 -417 0
-331 -419 0
-331 -421 0
-331 -423 0
-331 -425 0
-331 -427 0
-331 -429 0
-331 -431 0
-331 -433 0
-331 -435 0
-331 -437 0
-331 -439 0
-331 -441 0
-331 -443 0
-331 -445 0
-331 -447 0
-331 -449 0
-331 -451 0
-331 -453 0
-331 -455 0
-331 -457 0
-331 -459 0
-331 -461 0
-331 -463 0
-331 -465 0
-331 -467 0
-331 -469 0
-331 -471 0
-331 -473 0
-331 -475 0
-331 -477 0
-331 -479 0
-331 -481 0
-331 -483 0
-331 -485 0
-331 -487 0
-331 -489 0
-331 -491 0
-331 -493 0
-331 -495 0
-333 -335 0
-333 -337 0
-333 -339 0
-333 -341 0
-333 -343 0
-333 -345 0
-333 -347 0
-333 -349 0
-333 -351 0
-333 -353 0
-333 -355 0
-333 -357 0
-333 -359 0
-333 -361 0
-333 -363 0
-333 -365 0
-333 -367 0
-333 -369 0
-333 -371 0
-333 -373 0
-333 -375 0
-333 -377 0
-333 -379 0
-333 -381 0
-333 -383 0
-333 -385 0
-333 -387 0
-333 -389 0
-333 -391 0
-333 -393 0
-333 -395 0
-333 -397 0
-333 -399 0
-333 -401 0
-333 -403 0
-333 -405 0
-333 -407 0
-333 -409 0
-333 -411 0
-333 -413 0
-333 -415 0
-333 -417 0
-333 -419 0
-333 -421 0
-333 -423 0
-333 -425 0
-333 -427 0
-333 -429 0
-333 -431 0
-333 -433 0
-333 -435 0
-333 -437 0
-333 -439 0
-333 -441 0
-333 -443 0
-333 -445 0
-333 -447 0
-333 -449 0
-333 -451 0
-333 -453 0
-333 -455 0
-333 -457 0
-333 -459 0
-333 -461 0
-333 -463 0
-333 -465 0
-333 -467 0
-333 -469 0
-333 -471 0
-333 -473 0
-333 -475 0
-333 -477 0
-333 -479 0
-333 -481 0
-333 -483 0
-333 -485 0
-333 -487 0
-333 -489 0
-333 -491 0
-333 -493 0
-333 -495 0
-335 -337 0
-335 -339 0
-335 -341 0
-335 -343 0
-335 -345 0
-335 -347 0
-335 -349 0
-335 -351 0
-335 -353 0
-335 -355 0
-335 -357 0
-335 -359 0
-335 -361 0
-335 -363 0
-335 -365 0
-335 -367 0
-335 -369 0
-335 -371 0
-335 -373 0
-335 -375 0
-335 -377 0
-335 -379 0
-335 -381 0
-335 -383 0
-335 -385 0
-335 -387 0
-335 -389 0
-335 -391 0
-335 -393 0
-335 -395 0
-335 -397 0
-335 -399 0
-335 -401 0
-335 -403 0
-335 -405 0
-335 -407 0
-335 -409 0
-335 -411 0
-335 -413 0
-335 -415 0
-335 -417 0
-335 -419 0
-335 -421 0
-335 -423 0
-335 -425 0
-335 -427 0
-335 -429 0
-335 -431 0
-335 -433 0
-335 -435 0
-335 -437 0
-335 -439 0
-335 -441 0
-335 -443 0
-335 -445 0
-335 -447 0
-335 -449 0
-335 -451 0
-335 -453 0
-335 -455 0
-335 -457 0
-335 -459 0
-335 -461 0
-335 -463 0
-335 -465 0
-335 -467 0
-335 -469 0
-335 -471 0
-335 -473 0
-335 -475 0
-335 -477 0
-335 -479 0
-335 -481 0
-335 -483 0
-335 -485 0
-335 -487 0
-335 -489 0
-335 -491 0
-335 -493 0
-335 -495 0
-337 -339 0
-337 -341 0
-337 -343 0
-337 -345 0
-337 -347 0
-337 -349 0
-337 -351 0
-337 -353 0
-337 -355 0
-337 -357 0
-337 -359 0
-337 -361 0
-337 -363 0
-337 -365 0
-337 -367 0
-337 -369 0
-337 -371 0
-337 -373 0
-337 -375 0
-337 -377 0
-337 -379 0
-337 -381 0
-337 -383 0
-337 -385 0
-337 -387 0
-337 -389 0
-337 -391 0
-337 -393 0
-337 -395 0
-337 -397 0
-337 -399 0
-337 -401 0
-337 -403 0
-337 -405 0
-337 -407 0
-337 -409 0
-337 -411 0
-337 -413 0
-337 -415 0
-337 -417 0
-337 -419 0
-337 -421 0
-337 -423 0
-337 -425 0
-337 -427 0
-337 -429 0
-337 -431 0
-337 -433 0
-337 -435 0
-337 -437 0
-337 -439 0
-337 -441 0
-337 -443 0
-337 -445 0
-337 -447 0
-337 -449 0
-337 -451 0
-337 -453 0
-337 -455 0
-337 -457 0
-337 -459 0
-337 -461 0
-337 -463 0
-337 -465 0
-337 -467 0
-337 -469 0
-337 -471 0
-337 -473 0
-337 -475 0
-337 -477 0
-337 -479 0
-337 -481 0
-337 -483 0
-337 -485 0
-337 -487 0
-337 -489 0
-337 -491 0
-337 -493 0
-337 -495 0
-339 -341 0
-339 -343 0
-339 -345 0
-339 -347 0
-339 -349 0
-339 -351 0
-339 -353 0
-339 -355 0
-339 -357 0
-339 -359 0
-339 -361 0
-339 -363 0
-339 -365 0
-339 -367 0
-339 -369 0
-339 -371 0
-339 -373 0
-339 -375 0
-339 -377 0
-339 -379 0
-339 -381 0
-339 -383 0
-339 -385 0
-339 -387 0
-339 -389 0
-339 -391 0
-339 -393 0
-339 -395 0
-339 -397 0
-339 -399 0
-339 -401 0
-339 -403 0
-339 -405 0
-339 -407 0
-339 -409 0
-339 -411 0
-339 -413 0
-339 -415 0
-339 -417 0
-339 -419 0
-339 -421 0
-339 -423 0
-339 -425 0
-339 -427 0
-339 -429 0
-339 -431 0
-339 -433 0
-339 -435 0
-339 -437 0
-339 -439 0
-339 -441 0
-339 -443 0
-339 -445 0
-339 -447 0
-339 -449 0
-339 -451 0
-339 -453 0
-339 -455 0
-339 -457 0
-339 -459 0
-339 -461 0
-339 -463 0
-339 -465 0
-339 -467 0
-339 -469 0
-339 -471 0
-339 -473 0
-339 -475 0
-339 -477 0
-339 -479 0
-339 -481 0
-339 -483 0
-339 -485 0
-339 -487 0
-339 -489 0
-339 -491 0
-339 -493 0
-339 -495 0
-341 -343 0
-341 -345 0
-341 -347 0
-341 -349 0
-341 -351 0
-341 -353 0
-341 -355 0
-341 -357 0
-341 -359 0
-341 -361 0
-341 -363 0
-341 -365 0
-341 -367 0
-341 -369 0
-341 -371 0
-341 -373 0
-341 -375 0
-341 -377 0
-341 -379 0
-341 -381 0
-341 -383 0
-341 -385 0
-341 -387 0
-341 -389 0
-341 -391 0
-341 -393 0
-341 -395 0
-341 -397 0
-341 -399 0
-341 -401 0
-341 -403 0
-341 -405 0
-341 -407 0
-341 -409 0
-341 -411 0
-341 -413 0
-341 -415 0
-341 -417 0
-341 -419 0
-341 -421 0
-341 -423 0
-341 -425 0
-341 -427 0
-341 -429 0
-341 -431 0
-341 -433 0
-341 -435 0
-341 -437 0
-341 -439 0
-341 -441 0
-341 -443 0
-341 -445 0
-341 -447 0
-341 -449 0
-341 -451 0
-341 -453 0
-341 -455 0
-341 -457 0
-341 -459 0
-341 -461 0
-341 -463 0
-341 -465 0
-341 -467 0
-341 -469 0
-341 -471 0
-341 -473 0
-341 -475 0
-341 -477 0
-341 -479 0
-341 -481 0
-341 -483 0
-341 -485 0
-341 -487 0
-341 -489 0
-341 -491 0
-341 -493 0
-341 -495 0
-343 -345 0
-343 -347 0
-343 -349 0
-343 -351 0
-343 -353 0
-343 -355 0
-343 -357 0
-343 -359 0
-343 -361 0
-343 -363 0
-343 -365 0
-343 -367 0
-343 -369 0
-343 -371 0
-343 -373 0
-343 -375 0
-343 -377 0
-343 -379 0
-343 -381 0
-343 -383 0
-343 -385 0
-343 -387 0
-343 -389 0
-343 -391 0
-343 -393 0
-343 -395 0
-343 -397 0
-343 -399 0
-343 -401 0
-343 -403 0
-343 -405 0
-343 -407 0
-343 -409 0
-343 -411 0
-343 -413 0
-343 -415 0
-343 -417 0
-343 -419 0
-343 -421 0
-343 -423 0
-343 -425 0
-343 -427 0
-343 -429 0
-343 -431 0
-343 -433 0
-343 -435 0
-343 -437 0
-343 -439 0
-343 -441 0
-343 -443 0
-343 -445 0
-343 -447 0
-343 -449 0
-343 -451 0
-343 -453 0
-343 -455 0
-343 -457 0
-343 -459 0
-343 -461 0
-343 -463 0
-343 -465 0
-343 -467 0
-343 -469 0
-343 -471 0
-343 -473 0
-343 -475 0
-343 -477 0
-343 -479 0
-343 -481 0
-343 -483 0
-343 -485 0
-343 -487 0
-343 -489 0
-343 -491 0
-343 -493 0
-343 -495 0
-345 -347 0
-345 -349 0
-345 -351 0
-345 -353 0
-345 -355 0
-345 -357 0
-345 -359 0
-345 -361 0
-345 -363 0
-345 -365 0
-345 -367 0
-345 -369 0
-345 -371 0
-345 -373 0
-345 -375 0
-345 -377 0
-345 -379 0
-345 -381 0
-345 -383 0
-345 -385 0
-345 -387 0
-345 -389 0
-345 -391 0
-345 -393 0
-345 -395 0
-345 -397 0
-345 -399 0
-345 -401 0
-345 -403 0
-345 -405 0
-345 -407 0
-345 -409 0
-345 -411 0
-345 -413 0
-345 -415 0
-345 -417 0
-345 -419 0
-345 -421 0
-345 -423 0
-345 -425 0
-345 -427 0
-345 -429 0
-345 -431 0
-345 -433 0
-345 -435 0
-345 -437 0
-345 -439 0
-345 -441 0
-345 -443 0
-345 -445 0
-345 -447 0
-345 -449 0
-345 -451 0
-345 -453 0
-345 -455 0
-345 -457 0
-345 -459 0
-345 -461 0
-345 -463 0
-345 -465 0
-345 -467 0
-345 -469 0
-345 -471 0
-345 -473 0
-345 -475 0
-345 -477 0
-345 -479 0
-345 -481 0
-345 -483 0
-345 -485 0
-345 -487 0
-345 -489 0
-345 -491 0
-345 -493 0
-345 -495 0
-347 -349 0
-347 -351 0
-347 -353 0
-347 -355 0
-347 -357 0
-347 -359 0
-347 -361 0
-347 -363 0
-347 -365 0
-347 -367 0
-347 -369 0
-347 -371 0
-347 -373 0
-347 -375 0
-347 -377 0
-347 -379 0
-347 -381 0
-347 -383 0
-347 -385 0
-347 -387 0
-347 -389 0
-347 -391 0
-347 -393 0
-347 -395 0
-347 -397 0
-347 -399 0
-347 -401 0
-347 -403 0
-347 -405 0
-347 -407 0
-347 -409 0
-347 -411 0
-347 -413 0
-347 -415 0
-347 -417 0
-347 -419 0
-347 -421 0
-347 -423 0
-347 -425 0
-347 -427 0
-347 -429 0
-347 -431 0
-347 -433 0
-347 -435 0
-347 -437 0
-347 -439 0
-347 -441 0
-347 -443 0
-347 -445 0
-347 -447 0
-347 -449 0
-347 -451 0
-347 -453 0
-347 -455 0
-347 -457 0
-347 -459 0
-347 -461 0
-347 -463 0
-347 -465 0
-347 -467 0
-347 -469 0
-347 -471 0
-347 -473 0
-347 -475 0
-347 -477 0
-347 -479 0
-347 -481 0
-347 -483 0
-347 -485 0
-347 -487 0
-347 -489 0
-347 -491 0
-347 -493 0
-347 -495 0
-349 -351 0
-349 -353 0
-349 -355 0
-349 -357 0
-349 -359 0
-349 -361 0
-349 -363 0
-349 -365 0
-349 -367 0
-349 -369 0
-349 -371 0
-349 -373 0
-349 -375 0
-349 -377 0
-349 -379 0
-349 -381 0
-349 -383 0
-349 -385 0
-349 -387 0
-349 -389 0
-349 -391 0
-349 -393 0
-349 -395 0
-349 -397 0
-349 -399 0
-349 -401 0
-349 -403 0
-349 -405 0
-349 -407 0
-349 -409 0
-349 -411 0
-349 -413 0
-349 -415 0
-349 -417 0
-349 -419 0
-349 -421 0
-349 -423 0
-349 -425 0
-349 -427 0
-349 -429 0
-349 -431 0
-349 -433 0
-349 -435 0
-349 -437 0
-349 -439 0
-349 -441 0
-349 -443 0
-349 -445 0
-349 -447 0
-349 -449 0
-349 -451 0
-349 -453 0
-349 -455 0
-349 -457 0
-349 -459 0
-349 -461 0
-349 -463 0
-349 -465 0
-349 -467 0
-349 -469 0
-349 -471 0
-349 -473 0
-349 -475 0
-349 -477 0
-349 -479 0
-349 -481 0
-349 -483 0
-349 -485 0
-349 -487 0
-349 -489 0
-349 -491 0
-349 -493 0
-349 -495 0
-351 -353 0
-351 -355 0
-351 -357 0
-351 -359 0
-351 -361 0
-351 -363 0
-351 -365 0
-351 -367 0
-351 -369 0
-351 -371 0
-351 -373 0
-351 -375 0
-351 -377 0
-351 -379 0
-351 -381 0
-351 -383 0
-351 -385 0
-351 -387 0
-351 -389 0
-351 -391 0
-351 -393 0
-351 -395 0
-351 -397 0
-351 -399 0
-351 -401 0
-351 -403 0
-351 -405 0
-351 -407 0
-351 -409 0
-351 -411 0
-351 -413 0
-351 -415 0
-351 -417 0
-351 -419 0
-351 -421 0
-351 -423 0
-351 -425 0
-351 -427 0
-351 -429 0
-351 -431 0
-351 -433 0
-351 -435 0
-351 -437 0
-351 -439 0
-351 -441 0
-351 -443 0
-351 -445 0
-351 -447 0
-351 -449 0
-351 -451 0
-351 -453 0
-351 -455 0
-351 -457 0
-351 -459 0
-351 -461 0
-351 -463 0
-351 -465 0
-351 -467 0
-351 -469 0
-351 -471 0
-351 -473 0
-351 -475 0
-351 -477 0
-351 -479 0
-351 -481 0
-351 -483 0
-351 -485 0
-351 -487 0
-351 -489 0
-351 -491 0
-351 -493 0
-351 -495 0
-353 -355 0
-353 -357 0
-353 -359 0
-353 -361 0
-353 -363 0
-353 -365 0
-353 -367 0
-353 -369 0
-353 -371 0
-353 -373 0
-353 -375 0
-353 -377 0
-353 -379 0
-353 -381 0
-353 -383 0
-353 -385 0
-353 -387 0
-353 -389 0
-353 -391 0
-353 -393 0
-353 -395 0
-353 -397 0
-353 -399 0
-353 -401 0
-353 -403 0
-353 -405 0
-353 -407 0
-353 -409 0
-353 -411 0
-353 -413 0
-353 -415 0
-353 -417 0
-353 -419 0
-353 -421 0
-353 -423 0
-353 -425 0
-353 -427 0
-353 -429 0
-353 -431 0
-353 -433 0
-353 -435 0
-353 -437 0
-353 -439 0
-353 -441 0
-353 -443 0
-353 -445 0
-353 -447 0
-353 -449 0
-353 -451 0
-353 -453 0
-353 -455 0
-353 -457 0
-353 -459 0
-353 -461 0
-353 -463 0
-353 -465 0
-353 -467 0
-353 -469 0
-353 -471 0
-353 -473 0
-353 -475 0
-353 -477 0
-353 -479 0
-353 -481 0
-353 -483 0
-353 -485 0
-353 -487 0
-353 -489 0
-353 -491 0
-353 -493 0
-353 -495 0
-355 -357 0
-355 -359 0
-355 -361 0
-355 -363 0
-355 -365 0
-355 -367 0
-355 -369 0
-355 -371 0
-355 -373 0
-355 -375 0
-355 -377 0
-355 -379 0
-355 -381 0
-355 -383 0
-355 -385 0
-355 -387 0
-355 -389 0
-355 -391 0
-355 -393 0
-355 -395 0
-355 -397 0
-355 -399 0
-355 -401 0
-355 -403 0
-355 -405 0
-355 -407 0
-355 -409 0
-355 -411 0
-355 -413 0
-355 -415 0
-355 -417 0
-355 -419 0
-355 -421 0
-355 -423 0
-355 -425 0
-355 -427 0
-355 -429 0
-355 -431 0
-355 -433 0
-355 -435 0
-355 -437 0
-355 -439 0
-355 -441 0
-355 -443 0
-355 -445 0
-355 -447 0
-355 -449 0
-355 -451 0
-355 -453 0
-355 -455 0
-355 -457 0
-355 -459 0
-355 -461 0
-355 -463 0
-355 -465 0
-355 -467 0
-355 -469 0
-355 -471 0
-355 -473 0
-355 -475 0
-355 -477 0
-355 -479 0
-355 -481 0
-355 -483 0
-355 -485 0
-355 -487 0
-355 -489 0
-355 -491 0
-355 -493 0
-355 -495 0
-357 -359 0
-357 -361 0
-357 -363 0
-357 -365 0
-357 -367 0
-357 -369 0
-357 -371 0
-357 -373 0
-357 -375 0
-357 -377 0
-357 -379 0
-357 -381 0
-357 -383 0
-357 -385 0
-357 -387 0
-357 -389 0
-357 -391 0
-357 -393 0
-357 -395 0
-357 -397 0
-357 -399 0
-357 -401 0
-357 -403 0
-357 -405 0
-357 -407 0
-357 -409 0
-357 -411 0
-357 -413 0
-357 -415 0
-357 -417 0
-357 -419 0
-357 -421 0
-357 -423 0
-357 -425 0
-357 -427 0
-357 -429 0
-357 -431 0
-357 -433 0
-357 -435 0
-357 -437 0
-357 -439 0
-357 -441 0
-357 -443 0
-357 -445 0
-357 -447 0
-357 -449 0
-357 -451 0
-357 -453 0
-357 -455 0
-357 -457 0
-357 -459 0
-357 -461 0
-357 -463 0
-357 -465 0
-357 -467 0
-357 -469 0
-357 -471 0
-357 -473 0
-357 -475 0
-357 -477 0
-357 -479 0
-357 -481 0
-357 -483 0
-357 -485 0
-357 -487 0
-357 -489 0
-357 -491 0
-357 -493 0
-357 -495 0
-359 -361 0
-359 -363 0
-359 -365 0
-359 -367 0
-359 -369 0
-359 -371 0
-359 -373 0
-359 -375 0
-359 -377 0
-359 -379 0
-359 -381 0
-359 -383 0
-359 -385 0
-359 -387 0
-359 -389 0
-359 -391 0
-359 -393 0
-359 -395 0
-359 -397 0
-359 -399 0
-359 -401 0
-359 -403 0
-359 -405 0
-359 -407 0
-359 -409 0
-359 -411 0
-359 -413 0
-359 -415 0
-359 -417 0
-359 -419 0
-359 -421 0
-359 -423 0
-359 -425 0
-359 -427 0
-359 -429 0
-359 -431 0
-359 -433 0
-359 -435 0
-359 -437 0
-359 -439 0
-359 -441 0
-359 -443 0
-359 -445 0
-359 -447 0
-359 -449 0
-359 -451 0
-359 -453 0
-359 -455 0
-359 -457 0
-359 -459 0
-359 -461 0
-359 -463 0
-359 -465 0
-359 -467 0
-359 -469 0
-359 -471 0
-359 -473 0
-359 -475 0
-359 -477 0
-359 -479 0
-359 -481 0
-359 -483 0
-359 -485 0
-359 -487 0
-359 -489 0
-359 -491 0
-359 -493 0
-359 -495 0
-361 -363 0
-361 -365 0
-361 -367 0
-361 -369 0
-361 -371 0
-361 -373 0
-361 -375 0
-361 -377 0
-361 -379 0
-361 -381 0
-361 -383 0
-361 -385 0
-361 -387 0
-361 -389 0
-361 -391 0
-361 -393 0
-361 -395 0
-361 -397 0
-361 -399 0
-361 -401 0
-361 -403 0
-361 -405 0
-361 -407 0
-361 -409 0
-361 -411 0
-361 -413 0
-361 -415 0
-361 -417 0
-361 -419 0
-361 -421 0
-361 -423 0
-361 -425 0
-361 -427 0
-361 -429 0
-361 -431 0
-361 -433 0
-361 -435 0
-361 -437 0
-361 -439 0
-361 -441 0
-361 -443 0
-361 -445 0
-361 -447 0
-361 -449 0
-361 -451 0
-361 -453 0
-361 -455 0
-361 -457 0
-361 -459 0
-361 -461 0
-361 -463 0
-361 -465 0
-361 -467 0
-361 -469 0
-361 -471 0
-361 -473 0
-361 -475 0
-361 -477 0
-361 -479 0
-361 -481 0
-361 -483 0
-361 -485 0
-361 -487 0
-361 -489 0
-361 -491 0
-361 -493 0
-361 -495 0
-363 -365 0
-363 -367 0
-363 -369 0
-363 -371 0
-363 -373 0
-363 -375 0
-363 -377 0
-363 -379 0
-363 -381 0
-363 -383 0
-363 -385 0
-363 -387 0
-363 -389 0
-363 -391 0
-363 -393 0
-363 -395 0
-363 -397 0
-363 -399 0
-363 -401 0
-363 -403 0
-363 -405 0
-363 -407 0
-363 -409 0
-363 -411 0
-363 -413 0
-363 -415 0
-363 -417 0
-363 -419 0
-363 -421 0
-363 -423 0
-363 -425 0
-363 -427 0
-363 -429 0
-363 -431 0
-363 -433 0
-363 -435 0
-363 -437 0
-363 -439 0
-363 -441 0
-363 -443 0
-363 -445 0
-363 -447 0
-363 -449 0
-363 -451 0
-363 -453 0
-363 -455 0
-363 -457 0
-363 -459 0
-363 -461 0
-363 -463 0
-363 -465 0
-363 -467 0
-363 -469 0
-363 -471 0
-363 -473 0
-363 -475 0
-363 -477 0
-363 -479 0
-363 -481 0
-363 -483 0
-363 -485 0
-363 -487 0
-363 -489 0
-363 -491 0
-363 -493 0
-363 -495 0
-365 -367 0
-365 -369 0
-365 -371 0
-365 -373 0
-365 -375 0
-365 -377 0
-365 -379 0
-365 -381 0
-365 -383 0
-365 -385 0
-365 -387 0
-365 -389 0
-365 -391 0
-365 -393 0
-365 -395 0
-365 -397 0
-365 -399 0
-365 -401 0
-365 -403 0
-365 -405 0
-365 -407 0
-365 -409 0
-365 -411 0
-365 -413 0
-365 -415 0
-365 -417 0
-365 -419 0
-365 -421 0
-365 -423 0
-365 -425 0
-365 -427 0
-365 -429 0
-365 -431 0
-365 -433 0
-365 -435 0
-365 -437 0
-365 -439 0
-365 -441 0
-365 -443 0
-365 -445 0
-365 -447 0
-365 -449 0
-365 -451 0
-365 -453 0
-365 -455 0
-365 -457 0
-365 -459 0
-365 -461 0
-365 -463 0
-365 -465 0
-365 -467 0
-365 -469 0
-365 -471 0
-365 -473 0
-365 -475 0
-365 -477 0
-365 -479 0
-365 -481 0
-365 -483 0
-365 -485 0
-365 -487 0
-365 -489 0
-365 -491 0
-365 -493 0
-365 -495 0
-367 -369 0
-367 -371 0
-367 -373 0
-367 -375 0
-367 -377 0
-367 -379 0
-367 -381 0
-367 -383 0
-367 -385 0
-367 -387 0
-367 -389 0
-367 -391 0
-367 -393 0
-367 -395 0
-367 -397 0
-367 -399 0
-367 -401 0
-367 -403 0
-367 -405 0
-367 -407 0
-367 -409 0
-367 -411 0
-367 -413 0
-367 -415 0
-367 -417 0
-367 -419 0
-367 -421 0
-367 -423 0
-367 -425 0
-367 -427 0
-367 -429 0
-367 -431 0
-367 -433 0
-367 -435 0
-367 -437 0
-367 -439 0
-367 -441 0
-367 -443 0
-367 -445 0
-367 -447 0
-367 -449 0
-367 -451 0
-367 -453 0
-367 -455 0
-367 -457 0
-367 -459 0
-367 -461 0
-367 -463 0
-367 -465 0
-367 -467 0
-367 -469 0
-367 -471 0
-367 -473 0
-367 -475 0
-367 -477 0
-367 -479 0
-367 -481 0
-367 -483 0
-367 -485 0
-367 -487 0
-367 -489 0
-367 -491 0
-367 -493 0
-367 -495 0
-369 -371 0
-369 -373 0
-369 -375 0
-369 -377 0
-369 -379 0
-369 -381 0
-369 -383 0
-369 -385 0
-369 -387 0
-369 -389 0
-369 -391 0
-369 -393 0
-369 -395 0
-369 -397 0
-369 -399 0
-369 -401 0
-369 -403 0
-369 -405 0
-369 -407 0
-369 -409 0
-369 -411 0
-369 -413 0
-369 -415 0
-369 -417 0
-369 -419 0
-369 -421 0
-369 -423 0
-369 -425 0
-369 -427 0
-369 -429 0
-369 -431 0
-369 -433 0
-369 -435 0
-369 -437 0
-369 -439 0
-369 -441 0
-369 -443 0
-369 -445 0
-369 -447 0
-369 -449 0
-369 -451 0
-369 -453 0
-369 -455 0
-369 -457 0
-369 -459 0
-369 -461 0
-369 -463 0
-369 -465 0
-369 -467 0
-369 -469 0
-369 -471 0
-369 -473 0
-369 -475 0
-369 -477 0
-369 -479 0
-369 -481 0
-369 -483 0
-369 -485 0
-369 -487 0
-369 -489 0
-369 -491 0
-369 -493 0
-369 -495 0
-371 -373 0
-371 -375 0
-371 -377 0
-371 -379 0
-371 -381 0
-371 -383 0
-371 -385 0
-371 -387 0
-371 -389 0
-371 -391 0
-371 -393 0
-371 -395 0
-371 -397 0
-371 -399 0
-371 -401 0
-371 -403 0
-371 -405 0
-371 -407 0
-371 -409 0
-371 -411 0
-371 -413 0
-371 -415 0
-371 -417 0
-371 -419 0
-371 -421 0
-371 -423 0
-371 -425 0
-371 -427 0
-371 -429 0
-371 -431 0
-371 -433 0
-371 -435 0
-371 -437 0
-371 -439 0
-371 -441 0
-371 -443 0
-371 -445 0
-371 -447 0
-371 -449 0
-371 -451 0
-371 -453 0
-371 -455 0
-371 -457 0
-371 -459 0
-371 -461 0
-371 -463 0
-371 -465 0
-371 -467 0
-371 -469 0
-371 -471 0
-371 -473 0
-371 -475 0
-371 -477 0
-371 -479 0
-371 -481 0
-371 -483 0
-371 -485 0
-371 -487 0
-371 -489 0
-371 -491 0
-371 -493 0
-371 -495 0
-373 -375 0
-373 -377 0
-373 -379 0
-373 -381 0
-373 -383 0
-373 -385 0
-373 -387 0
-373 -389 0
-373 -391 0
-373 -393 0
-373 -395 0
-373 -397 0
-373 -399 0
-373 -401 0
-373 -403 0
-373 -405 0
-373 -407 0
-373 -409 0
-373 -411 0
-373 -413 0
-373 -415 0
-373 -417 0
-373 -419 0
-373 -421 0
-373 -423 0
-373 -425 0
-373 -427 0
-373 -429 0
-373 -431 0
-373 -433 0
-373 -435 0
-373 -437 0
-373 -439 0
-373 -441 0
-373 -443 0
-373 -445 0
-373 -447 0
-373 -449 0
-373 -451 0
-373 -453 0
-373 -455 0
-373 -457 0
-373 -459 0
-373 -461 0
-373 -463 0
-373 -465 0
-373 -467 0
-373 -469 0
-373 -471 0
-373 -473 0
-373 -475 0
-373 -477 0
-373 -479 0
-373 -481 0
-373 -483 0
-373 -485 0
-373 -487 0
-373 -489 0
-373 -491 0
-373 -493 0
-373 -495 0
-375 -377 0
-375 -379 0
-375 -381 0
-375 -383 0
-375 -385 0
-375 -387 0
-375 -389 0
-375 -391 0
-375 -393 0
-375 -395 0
-375 -397 0
-375 -399 0
-375 -401 0
-375 -403 0
-375 -405 0
-375 -407 0
-375 -409 0
-375 -411 0
-375 -413 0
-375 -415 0
-375 -417 0
-375 -419 0
-375 -421 0
-375 -423 0
-375 -425 0
-375 -427 0
-375 -429 0
-375 -431 0
-375 -433 0
-375 -435 0
-375 -437 0
-375 -439 0
-375 -441 0
-375 -443 0
-375 -445 0
-375 -447 0
-375 -449 0
-375 -451 0
-375 -453 0
-375 -455 0
-375 -457 0
-375 -459 0
-375 -461 0
-375 -463 0
-375 -465 0
-375 -467 0
-375 -469 0
-375 -471 0
-375 -473 0
-375 -475 0
-375 -477 0
-375 -479 0
-375 -481 0
-375 -483 0
-375 -485 0
-375 -487 0
-375 -489 0
-375 -491 0
-375 -493 0
-375 -495 0
-377 -379 0
-377 -381 0
-377 -383 0
-377 -385 0
-377 -387 0
-377 -389 0
-377 -391 0
-377 -393 0
-377 -395 0
-377 -397 0
-377 -399 0
-377 -401 0
-377 -403 0
-377 -405 0
-377 -407 0
-377 -409 0
-377 -411 0
-377 -413 0
-377 -415 0
-377 -417 0
-377 -419 0
-377 -421 0
-377 -423 0
-377 -425 0
-377 -427 0
-377 -429 0
-377 -431 0
-377 -433 0
-377 -435 0
-377 -437 0
-377 -439 0
-377 -441 0
-377 -443 0
-377 -445 0
-377 -447 0
-377 -449 0
-377 -451 0
-377 -453 0
-377 -455 0
-377 -457 0
-377 -459 0
-377 -461 0
-377 -463 0
-377 -465 0
-377 -467 0
-377 -469 0
-377 -471 0
-377 -473 0
-377 -475 0
-377 -477 0
-377 -479 0
-377 -481 0
-377 -483 0
-377 -485 0
-377 -487 0
-377 -489 0
-377 -491 0
-377 -493 0
-377 -495 0
-379 -381 0
-379 -383 0
-379 -385 0
-379 -387 0
-379 -389 0
-379 -391 0
-379 -393 0
-379 -395 0
-379 -397 0
-379 -399 0
-379 -401 0
-379 -403 0
-379 -405 0
-379 -407 0
-379 -409 0
-379 -411 0
-379 -413 0
-379 -415 0
-379 -417 0
-379 -419 0
-379 -421 0
-379 -423 0
-379 -425 0
-379 -427 0
-379 -429 0
-379 -431 0
-379 -433 0
-379 -435 0
-379 -437 0
-379 -439 0
-379 -441 0
-379 -443 0
-379 -445 0
-379 -447 0
-379 -449 0
-379 -451 0
-379 -453 0
-379 -455 0
-379 -457 0
-379 -459 0
-379 -461 0
-379 -463 0
-379 -465 0
-379 -467 0
-379 -469 0
-379 -471 0
-379 -473 0
-379 -475 0
-379 -477 0
-379 -479 0
-379 -481 0
-379 -483 0
-379 -485 0
-379 -487 0
-379 -489 0
-379 -491 0
-379 -493 0
-379 -495 0
-381 -383 0
-381 -385 0
-381 -387 0
-381 -389 0
-381 -391 0
-381 -393 0
-381 -395 0
-381 -397 0
-381 -399 0
-381 -401 0
-381 -403 0
-381 -405 0
-381 -407 0
-381 -409 0
-381 -411 0
-381 -413 0
-381 -415 0
-381 -417 0
-381 -419 0
-381 -421 0
-381 -423 0
-381 -425 0
-381 -427 0
-381 -429 0
-381 -431 0
-381 -433 0
-381 -435 0
-381 -437 0
-381 -439 0
-381 -441 0
-381 -443 0
-381 -445 0
-381 -447 0
-381 -449 0
-381 -451 0
-381 -453 0
-381 -455 0
-381 -457 0
-381 -459 0
-381 -461 0
-381 -463 0
-381 -465 0
-381 -467 0
-381 -469 0
-381 -471 0
-381 -473 0
-381 -475 0
-381 -477 0
-381 -479 0
-381 -481 0
-381 -483 0
-381 -485 0
-381 -487 0
-381 -489 0
-381 -491 0
-381 -493 0
-381 -495 0
-383 -385 0
-383 -387 0
-383 -389 0
-383 -391 0
-383 -393 0
-383 -395 0
-383 -397 0
-383 -399 0
-383 -401 0
-383 -403 0
-383 -405 0
-383 -407 0
-383 -409 0
-383 -411 0
-383 -413 0
-383 -415 0
-383 -417 0
-383 -419 0
-383 -421 0
-383 -423 0
-383 -425 0
-383 -427 0
-383 -429 0
-383 -431 0
-383 -433 0
-383 -435 0
-383 -437 0
-383 -439 0
-383 -441 0
-383 -443 0
-383 -445 0
-383 -447 0
-383 -449 0
-383 -451 0
-383 -453 0
-383 -455 0
-383 -457 0
-383 -459 0
-383 -461 0
-383 -463 0
-383 -465 0
-383 -467 0
-383 -469 0
-383 -471 0
-383 -473 0
-383 -475 0
-383 -477 0
-383 -479 0
-383 -481 0
-383 -483 0
-383 -485 0
-383 -487 0
-383 -489 0
-383 -491 0
-383 -493 0
-383 -495 0
-385 -387 0
-385 -389 0
-385 -391 0
-385 -393 0
-385 -395 0
-385 -397 0
-385 -399 0
-385 -401 0
-385 -403 0
-385 -405 0
-385 -407 0
-385 -409 0
-385 -411 0
-385 -413 0
-385 -415 0
-385 -417 0
-385 -419 0
-385 -421 0
-385 -423 0
-385 -425 0
-385 -427 0
-385 -429 0
-385 -431 0
-385 -433 0
-385 -435 0
-385 -437 0
-385 -439 0
-385 -441 0
-385 -443 0
-385 -445 0
-385 -447 0
-385 -449 0
-385 -451 0
-385 -453 0
-385 -455 0
-385 -457 0
-385 -459 0
-385 -461 0
-385 -463 0
-385 -465 0
-385 -467 0
-385 -469 0
-385 -471 0
-385 -473 0
-385 -475 0
-385 -477 0
-385 -479 0
-385 -481 0
-385 -483 0
-385 -485 0
-385 -487 0
-385 -489 0
-385 -491 0
-385 -493 0
-385 -495 0
-387 -389 0
-387 -391 0
-387 -393 0
-387 -395 0
-387 -397 0
-387 -399 0
-387 -401 0
-387 -403 0
-387 -405 0
-387 -407 0
-387 -409 0
-387 -411 0
-387 -413 0
-387 -415 0
-387 -417 0
-387 -419 0
-387 -421 0
-387 -423 0
-387 -425 0
-387 -427 0
-387 -429 0
-387 -431 0
-387 -433 0
-387 -435 0
-387 -437 0
-387 -439 0
-387 -441 0
-387 -443 0
-387 -445 0
-387 -447 0
-387 -449 0
-387 -451 0
-387 -453 0
-387 -455 0
-387 -457 0
-387 -459 0
-387 -461 0
-387 -463 0
-387 -465 0
-387 -467 0
-387 -469 0
-387 -471 0
-387 -473 0
-387 -475 0
-387 -477 0
-387 -479 0
-387 -481 0
-387 -483 0
-387 -485 0
-387 -487 0
-387 -489 0
-387 -491 0
-387 -493 0
-387 -495 0
-389 -391 0
-389 -393 0
-389 -395 0
-389 -397 0
-389 -399 0
-389 -401 0
-389 -403 0
-389 -405 0
-389 -407 0
-389 -409 0
-389 -411 0
-389 -413 0
-389 -415 0
-389 -417 0
-389 -419 0
-389 -421 0
-389 -423 0
-389 -425 0
-389 -427 0
-389 -429 0
-389 -431 0
-389 -433 0
-389 -435 0
-389 -437 0
-389 -439 0
-389 -441 0
-389 -443 0
-389 -445 0
-389 -447 0
-389 -449 0
-389 -451 0
-389 -453 0
-389 -455 0
-389 -457 0
-389 -459 0
-389 -461 0
-389 -463 0
-389 -465 0
-389 -467 0
-389 -469 0
-389 -471 0
-389 -473 0
-389 -475 0
-389 -477 0
-389 -479 0
-389 -481 0
-389 -483 0
-389 -485 0
-389 -487 0
-389 -489 0
-389 -491 0
-389 -493 0
-389 -495 0
-391 -393 0
-391 -395 0
-391 -397 0
-391 -399 0
-391 -401 0
-391 -403 0
-391 -405 0
-391 -407 0
-391 -409 0
-391 -411 0
-391 -413 0
-391 -415 0
-391 -417 0
-391 -419 0
-391 -421 0
-391 -423 0
-391 -425 0
-391 -427 0
-391 -429 0
-391 -431 0
-391 -433 0
-391 -435 0
-391 -437 0
-391 -439 0
-391 -441 0
-391 -443 0
-391 -445 0
-391 -447 0
-391 -449 0
-391 -451 0
-391 -453 0
-391 -455 0
-391 -457 0
-391 -459 0
-391 -461 0
-391 -463 0
-391 -465 0
-391 -467 0
-391 -469 0
-391 -471 0
-391 -473 0
-391 -475 0
-391 -477 0
-391 -479 0
-391 -481 0
-391 -483 0
-391 -485 0
-391 -487 0
-391 -489 0
-391 -491 0
-391 -493 0
-391 -495 0
-393 -395 0
-393 -397 0
-393 -399 0
-393 -401 0
-393 -403 0
-393 -405 0
-393 -407 0
-393 -409 0
-393 -411 0
-393 -413 0
-393 -415 0
-393 -417 0
-393 -419 0
-393 -421 0
-393 -423 0
-393 -425 0
-393 -427 0
-393 -429 0
-393 -431 0
-393 -433 0
-393 -435 0
-393 -437 0
-393 -439 0
-393 -441 0
-393 -443 0
-393 -445 0
-393 -447 0
-393 -449 0
-393 -451 0
-393 -453 0
-393 -455 0
-393 -457 0
-393 -459 0
-393 -461 0
-393 -463 0
-393 -465 0
-393 -467 0
-393 -469 0
-393 -471 0
-393 -473 0
-393 -475 0
-393 -477 0
-393 -479 0
-393 -481 0
-393 -483 0
-393 -485 0
-393 -487 0
-393 -489 0
-393 -491 0
-393 -493 0
-393 -495 0
-395 -397 0
-395 -399 0
-395 -401 0
-395 -403 0
-395 -405 0
-395 -407 0
-395 -409 0
-395 -411 0
-395 -413 0
-395 -415 0
-395 -417 0
-395 -419 0
-395 -421 0
-395 -423 0
-395 -425 0
-395 -427 0
-395 -429 0
-395 -431 0
-395 -433 0
-395 -435 0
-395 -437 0
-395 -439 0
-395 -441 0
-395 -443 0
-395 -445 0
-395 -447 0
-395 -449 0
-395 -451 0
-395 -453 0
-395 -455 0
-395 -457 0
-395 -459 0
-395 -461 0
-395 -463 0
-395 -465 0
-395 -467 0
-395 -469 0
-395 -471 0
-395 -473 0
-395 -475 0
-395 -477 0
-395 -479 0
-395 -481 0
-395 -483 0
-395 -485 0
-395 -487 0
-395 -489 0
-395 -491 0
-395 -493 0
-395 -495 0
-397 -399 0
-397 -401 0
-397 -403 0
-397 -405 0
-397 -407 0
-397 -409 0
-397 -411 0
-397 -413 0
-397 -415 0
-397 -417 0
-397 -419 0
-397 -421 0
-397 -423 0
-397 -425 0
-397 -427 0
-397 -429 0
-397 -431 0
-397 -433 0
-397 -435 0
-397 -437 0
-397 -439 0
-397 -441 0
-397 -443 0
-397 -445 0
-397 -447 0
-397 -449 0
-397 -451 0
-397 -453 0
-397 -455 0
-397 -457 0
-397 -459 0
-397 -461 0
-397 -463 0
-397 -465 0
-397 -467 0
-397 -469 0
-397 -471 0
-397 -473 0
-397 -475 0
-397 -477 0
-397 -479 0
-397 -481 0
-397 -483 0
-397 -485 0
-397 -487 0
-397 -489 0
-397 -491 0
-397 -493 0
-397 -495 0
-399 -401 0
-399 -403 0
-399 -405 0
-399 -407 0
-399 -409 0
-399 -411 0
-399 -413 0
-399 -415 0
-399 -417 0
-399 -419 0
-399 -421 0
-399 -423 0
-399 -425 0
-399 -427 0
-399 -429 0
-399 -431 0
-399 -433 0
-399 -435 0
-399 -437 0
-399 -439 0
-399 -441 0
-399 -443 0
-399 -445 0
-399 -447 0
-399 -449 0
-399 -451 0
-399 -453 0
-399 -455 0
-399 -457 0
-399 -459 0
-399 -461 0
-399 -463 0
-399 -465 0
-399 -467 0
-399 -469 0
-399 -471 0
-399 -473 0
-399 -475 0
-399 -477 0
-399 -479 0
-399 -481 0
-399 -483 0
-399 -485 0
-399 -487 0
-399 -489 0
-399 -491 0
-399 -493 0
-399 -495 0
-401 -403 0
-401 -405 0
-401 -407 0
-401 -409 0
-401 -411 0
-401 -413 0
-401 -415 0
-401 -417 0
-401 -419 0
-401 -421 0
-401 -423 0
-401 -425 0
-401 -427 0
-401 -429 0
-401 -431 0
-401 -433 0
-401 -435 0
-401 -437 0
-401 -439 0
-401 -441 0
-401 -443 0
-401 -445 0
-401 -447 0
-401 -449 0
-401 -451 0
-401 -453 0
-401 -455 0
-401 -457 0
-401 -459 0
-401 -461 0
-401 -463 0
-401 -465 0
-401 -467 0
-401 -469 0
-401 -471 0
-401 -473 0
-401 -475 0
-401 -477 0
-401 -479 0
-401 -481 0
-401 -483 0
-401 -485 0
-401 -487 0
-401 -489 0
-401 -491 0
-401 -493 0
-401 -495 0
-403 -405 0
-403 -407 0
-403 -409 0
-403 -411 0
-403 -413 0
-403 -415 0
-403 -417 0
-403 -419 0
-403 -421 0
-403 -423 0
-403 -425 0
-403 -427 0
-403 -429 0
-403 -431 0
-403 -433 0
-403 -435 0
-403 -437 0
-403 -439 0
-403 -441 0
-403 -443 0
-403 -445 0
-403 -447 0
-403 -449 0
-403 -451 0
-403 -453 0
-403 -455 0
-403 -457 0
-403 -459 0
-403 -461 0
-403 -463 0
-403 -465 0
-403 -467 0
-403 -469 0
-403 -471 0
-403 -473 0
-403 -475 0
-403 -477 0
-403 -479 0
-403 -481 0
-403 -483 0
-403 -485 0
-403 -487 0
-403 -489 0
-403 -491 0
-403 -493 0
-403 -495 0
-405 -407 0
-405 -409 0
-405 -411 0
-405 -413 0
-405 -415 0
-405 -417 0
-405 -419 0
-405 -421 0
-405 -423 0
-405 -425 0
-405 -427 0
-405 -429 0
-405 -431 0
-405 -433 0
-405 -435 0
-405 -437 0
-405 -439 0
-405 -441 0
-405 -443 0
-405 -445 0
-405 -447 0
-405 -449 0
-405 -451 0
-405 -453 0
-405 -455 0
-405 -457 0
-405 -459 0
-405 -461 0
-405 -463 0
-405 -465 0
-405 -467 0
-405 -469 0
-405 -471 0
-405 -473 0
-405 -475 0
-405 -477 0
-405 -479 0
-405 -481 0
-405 -483 0
-405 -485 0
-405 -487 0
-405 -489 0
-405 -491 0
-405 -493 0
-405 -495 0
-407 -409 0
-407 -411 0
-407 -413 0
-407 -415 0
-407 -417 0
-407 -419 0
-407 -421 0
-407 -423 0
-407 -425 0
-407 -427 0
-407 -429 0
-407 -431 0
-407 -433 0
-407 -435 0
-407 -437 0
-407 -439 0
-407 -441 0
-407 -443 0
-407 -445 0
-407 -447 0
-407 -449 0
-407 -451 0
-407 -453 0
-407 -455 0
-407 -457 0
-407 -459 0
-407 -461 0
-407 -463 0
-407 -465 0
-407 -467 0
-407 -469 0
-407 -471 0
-407 -473 0
-407 -475 0
-407 -477 0
-407 -479 0
-407 -481 0
-407 -483 0
-407 -485 0
-407 -487 0
-407 -489 0
-407 -491 0
-407 -493 0
-407 -495 0
-409 -411 0
-409 -413 0
-409 -415 0
-409 -417 0
-409 -419 0
-409 -421 0
-409 -423 0
-409 -425 0
-409 -427 0
-409 -429 0
-409 -431 0
-409 -433 0
-409 -435 0
-409 -437 0
-409 -439 0
-409 -441 0
-409 -443 0
-409 -445 0
-409 -447 0
-409 -449 0
-409 -451 0
-409 -453 0
-409 -455 0
-409 -457 0
-409 -459 0
-409 -461 0
-409 -463 0
-409 -465 0
-409 -467 0
-409 -469 0
-409 -471 0
-409 -473 0
-409 -475 0
-409 -477 0
-409 -479 0
-409 -481 0
-409 -483 0
-409 -485 0
-409 -487 0
-409 -489 0
-409 -491 0
-409 -493 0
-409 -495 0
-411 -413 0
-411 -415 0
-411 -417 0
-411 -419 0
-411 -421 0
-411 -423 0
-411 -425 0
-411 -427 0
-411 -429 0
-411 -431 0
-411 -433 0
-411 -435 0
-411 -437 0
-411 -439 0
-411 -441 0
-411 -443 0
-411 -445 0
-411 -447 0
-411 -449 0
-411 -451 0
-411 -453 0
-411 -455 0
-411 -457 0
-411 -459 0
-411 -461 0
-411 -463 0
-411 -465 0
-411 -467 0
-411 -469 0
-411 -471 0
-411 -473 0
-411 -475 0
-411 -477 0
-411 -479 0
-411 -481 0
-411 -483 0
-411 -485 0
-411 -487 0
-411 -489 0
-411 -491 0
-411 -493 0
-411 -495 0
-413 -415 0
-413 -417 0
-413 -419 0
-413 -421 0
-413 -423 0
-413 -425 0
-413 -427 0
-413 -429 0
-413 -431 0
-413 -433 0
-413 -435 0
-413 -437 0
-413 -439 0
-413 -441 0
-413 -443 0
-413 -445 0
-413 -447 0
-413 -449 0
-413 -451 0
-413 -453 0
-413 -455 0
-413 -457 0
-413 -459 0
-413 -461 0
-413 -463 0
-413 -465 0
-413 -467 0
-413 -469 0
-413 -471 0
-413 -473 0
-413 -475 0
-413 -477 0
-413 -479 0
-413 -481 0
-413 -483 0
-413 -485 0
-413 -487 0
-413 -489 0
-413 -491 0
-413 -493 0
-413 -495 0
-415 -417 0
-415 -419 0
-415 -421 0
-415 -423 0
-415 -425 0
-415 -427 0
-415 -429 0
-415 -431 0
-415 -433 0
-415 -435 0
-415 -437 0
-415 -439 0
-415 -441 0
-415 -443 0
-415 -445 0
-415 -447 0
-415 -449 0
-415 -451 0
-415 -453 0
-415 -455 0
-415 -457 0
-415 -459 0
-415 -461 0
-415 -463 0
-415 -465 0
-415 -467 0
-415 -469 0
-415 -471 0
-415 -473 0
-415 -475 0
-415 -477 0
-415 -479 0
-415 -481 0
-415 -483 0
-415 -485 0
-415 -487 0
-415 -489 0
-415 -491 0
-415 -493 0
-415 -495 0
-417 -419 0
-417 -421 0
-417 -423 0
-417 -425 0
-417 -427 0
-417 -429 0
-417 -431 0
-417 -433 0
-417 -435 0
-417 -437 0
-417 -439 0
-417 -441 0
-417 -443 0
-417 -445 0
-417 -447 0
-417 -449 0
-417 -451 0
-417 -453 0
-417 -455 0
-417 -457 0
-417 -459 0
-417 -461 0
-417 -463 0
-417 -465 0
-417 -467 0
-417 -469 0
-417 -471 0
-417 -473 0
-417 -475 0
-417 -477 0
-417 -479 0
-417 -481 0
-417 -483 0
-417 -485 0
-417 -487 0
-417 -489 0
-417 -491 0
-417 -493 0
-417 -495 0
-419 -421 0
-419 -423 0
-419 -425 0
-419 -427 0
-419 -429 0
-419 -431 0
-419 -433 0
-419 -435 0
-419 -437 0
-419 -439 0
-419 -441 0
-419 -443 0
-419 -445 0
-419 -447 0
-419 -449 0
-419 -451 0
-419 -453 0
-419 -455 0
-419 -457 0
-419 -459 0
-419 -461 0
-419 -463 0
-419 -465 0
-419 -467 0
-419 -469 0
-419 -471 0
-419 -473 0
-419 -475 0
-419 -477 0
-419 -479 0
-419 -481 0
-419 -483 0
-419 -485 0
-419 -487 0
-419 -489 0
-419 -491 0
-419 -493 0
-419 -495 0
-421 -423 0
-421 -425 0
-421 -427 0
-421 -429 0
-421 -431 0
-421 -433 0
-421 -435 0
-421 -437 0
-421 -439 0
-421 -441 0
-421 -443 0
-421 -445 0
-421 -447 0
-421 -449 0
-421 -451 0
-421 -453 0
-421 -455 0
-421 -457 0
-421 -459 0
-421 -461 0
-421 -463 0
-421 -465 0
-421 -467 0
-421 -469 0
-421 -471 0
-421 -473 0
-421 -475 0
-421 -477 0
-421 -479 0
-421 -481 0
-421 -483 0
-421 -485 0
-421 -487 0
-421 -489 0
-421 -491 0
-421 -493 0
-421 -495 0
-423 -425 0
-423 -427 0
-423 -429 0
-423 -431 0
-423 -433 0
-423 -435 0
-423 -437 0
-423 -439 0
-423 -441 0
-423 -443 0
-423 -445 0
-423 -447 0
-423 -449 0
-423 -451 0
-423 -453 0
-423 -455 0
-423 -457 0
-423 -459 0
-423 -461 0
-423 -463 0
-423 -465 0
-423 -467 0
-423 -469 0
-423 -471 0
-423 -473 0
-423 -475 0
-423 -477 0
-423 -479 0
-423 -481 0
-423 -483 0
-423 -485 0
-423 -487 0
-423 -489 0
-423 -491 0
-423 -493 0
-423 -495 0
-425 -427 0
-425 -429 0
-425 -431 0
-425 -433 0
-425 -435 0
-425 -437 0
-425 -439 0
-425 -441 0
-425 -443 0
-425 -445 0
-425 -447 0
-425 -449 0
-425 -451 0
-425 -453 0
-425 -455 0
-425 -457 0
-425 -459 0
-425 -461 0
-425 -463 0
-425 -465 0
-425 -467 0
-425 -469 0
-425 -471 0
-425 -473 0
-425 -475 0
-425 -477 0
-425 -479 0
-425 -481 0
-425 -483 0
-425 -485 0
-425 -487 0
-425 -489 0
-425 -491 0
-425 -493 0
-425 -495 0
-427 -429 0
-427 -431 0
-427 -433 0
-427 -435 0
-427 -437 0
-427 -439 0
-427 -441 0
-427 -443 0
-427 -445 0
-427 -447 0
-427 -449 0
-427 -451 0
-427 -453 0
-427 -455 0
-427 -457 0
-427 -459 0
-427 -461 0
-427 -463 0
-427 -465 0
-427 -467 0
-427 -469 0
-427 -471 0
-427 -473 0
-427 -475 0
-427 -477 0
-427 -479 0
-427 -481 0
-427 -483 0
-427 -485 0
-427 -487 0
-427 -489 0
-427 -491 0
-427 -493 0
-427 -495 0
-429 -431 0
-429 -433 0
-429 -435 0
-429 -437 0
-429 -439 0
-429 -441 0
-429 -443 0
-429 -445 0
-429 -447 0
-429 -449 0
-429 -451 0
-429 -453 0
-429 -455 0
-429 -457 0
-429 -459 0
-429 -461 0
-429 -463 0
-429 -465 0
-429 -467 0
-429 -469 0
-429 -471 0
-429 -473 0
-429 -475 0
-429 -477 0
-429 -479 0
-429 -481 0
-429 -483 0
-429 -485 0
-429 -487 0
-429 -489 0
-429 -491 0
-429 -493 0
-429 -495 0
-431 -433 0
-431 -435 0
-431 -437 0
-431 -439 0
-431 -441 0
-431 -443 0
-431 -445 0
-431 -447 0
-431 -449 0
-431 -451 0
-431 -453 0
-431 -455 0
-431 -457 0
-431 -459 0
-431 -461 0
-431 -463 0
-431 -465 0
-431 -467 0
-431 -469 0
-431 -471 0
-431 -473 0
-431 -475 0
-431 -477 0
-431 -479 0
-431 -481 0
-431 -483 0
-431 -485 0
-431 -487 0
-431 -489 0
-431 -491 0
-431 -493 0
-431 -495 0
-433 -435 0
-433 -437 0
-433 -439 0
-433 -441 0
-433 -443 0
-433 -445 0
-433 -447 0
-433 -449 0
-433 -451 0
-433 -453 0
-433 -455 0
-433 -457 0
-433 -459 0
-433 -461 0
-433 -463 0
-433 -465 0
-433 -467 0
-433 -469 0
-433 -471 0
-433 -473 0
-433 -475 0
-433 -477 0
-433 -479 0
-433 -481 0
-433 -483 0
-433 -485 0
-433 -487 0
-433 -489 0
-433 -491 0
-433 -493 0
-433 -495 0
-435 -437 0
-435 -439 0
-435 -441 0
-435 -443 0
-435 -445 0
-435 -447 0
-435 -449 0
-435 -451 0
-435 -453 0
-435 -455 0
-435 -457 0
-435 -459 0
-435 -461 0
-435 -463 0
-435 -465 0
-435 -467 0
-435 -469 0
-435 -471 0
-435 -473 0
-435 -475 0
-435 -477 0
-435 -479 0
-435 -481 0
-435 -483 0
-435 -485 0
-435 -487 0
-435 -489 0
-435 -491 0
-435 -493 0
-435 -495 0
-437 -439 0
-437 -441 0
-437 -443 0
-437 -445 0
-437 -447 0
-437 -449 0
-437 -451 0
-437 -453 0
-437 -455 0
-437 -457 0
-437 -459 0
-437 -461 0
-437 -463 0
-437 -465 0
-437 -467 0
-437 -469 0
-437 -471 0
-437 -473 0
-437 -475 0
-437 -477 0
-437 -479 0
-437 -481 0
-437 -483 0
-437 -485 0
-437 -487 0
-437 -489 0
-437 -491 0
-437 -493 0
-437 -495 0
-439 -441 0
-439 -443 0
-439 -445 0
-439 -447 0
-439 -449 0
-439 -451 0
-439 -453 0
-439 -455 0
-439 -457 0
-439 -459 0
-439 -461 0
-439 -463 0
-439 -465 0
-439 -467 0
-439 -469 0
-439 -471 0
-439 -473 0
-439 -475 0
-439 -477 0
-439 -479 0
-439 -481 0
-439 -483 0
-439 -485 0
-439 -487 0
-439 -489 0
-439 -491 0
-439 -493 0
-439 -495 0
-441 -443 0
-441 -445 0
-441 -447 0
-441 -449 0
-441 -451 0
-441 -453 0
-441 -455 0
-441 -457 0
-441 -459 0
-441 -461 0
-441 -463 0
-441 -465 0
-441 -467 0
-441 -469 0
-441 -471 0
-441 -473 0
-441 -475 0
-441 -477 0
-441 -479 0
-441 -481 0
-441 -483 0
-441 -485 0
-441 -487 0
-441 -489 0
-441 -491 0
-441 -493 0
-441 -495 0
-443 -445 0
-443 -447 0
-443 -449 0
-443 -451 0
-443 -453 0
-443 -455 0
-443 -457 0
-443 -459 0
-443 -461 0
-443 -463 0
-443 -465 0
-443 -467 0
-443 -469 0
-443 -471 0
-443 -473 0
-443 -475 0
-443 -477 0
-443 -479 0
-443 -481 0
-443 -483 0
-443 -485 0
-443 -487 0
-443 -489 0
-443 -491 0
-443 -493 0
-443 -495 0
-445 -447 0
-445 -449 0
-445 -451 0
-445 -453 0
-445 -455 0
-445 -457 0
-445 -459 0
-445 -461 0
-445 -463 0
-445 -465 0
-445 -467 0
-445 -469 0
-445 -471 0
-445 -473 0
-445 -475 0
-445 -477 0
-445 -479 0
-445 -481 0
-445 -483 0
-445 -485 0
-445 -487 0
-445 -489 0
-445 -491 0
-445 -493 0
-445 -495 0
-447 -449 0
-447 -451 0
-447 -453 0
-447 -455 0
-447 -457 0
-447 -459 0
-447 -461 0
-447 -463 0
-447 -465 0
-447 -467 0
-447 -469 0
-447 -471 0
-447 -473 0
-447 -475 0
-447 -477 0
-447 -479 0
-447 -481 0
-447 -483 0
-447 -485 0
-447 -487 0
-447 -489 0
-447 -491 0
-447 -493 0
-447 -495 0
-449 -451 0
-449 -453 0
-449 -455 0
-449 -457 0
-449 -459 0
-449 -461 0
-449 -463 0
-449 -465 0
-449 -467 0
-449 -469 0
-449 -471 0
-449 -473 0
-449 -475 0
-449 -477 0
-449 -479 0
-449 -481 0
-449 -483 0
-449 -485 0
-449 -487 0
-449 -489 0
-449 -491 0
-449 -493 0
-449 -495 0
-451 -453 0
-451 -455 0
-451 -457 0
-451 -459 0
-451 -461 0
-451 -463 0
-451 -465 0
-451 -467 0
-451 -469 0
-451 -471 0
-451 -473 0
-451 -475 0
-451 -477 0
-451 -479 0
-451 -481 0
-451 -483 0
-451 -485 0
-451 -487 0
-451 -489 0
-451 -491 0
-451 -493 0
-451 -495 0
-453 -455 0
-453 -457 0
-453 -459 0
-453 -461 0
-453 -463 0
-453 -465 0
-453 -467 0
-453 -469 0
-453 -471 0
-453 -473 0
-453 -475 0
-453 -477 0
-453 -479 0
-453 -481 0
-453 -483 0
-453 -485 0
-453 -487 0
-453 -489 0
-453 -491 0
-453 -493 0
-453 -495 0
-455 -457 0
-455 -459 0
-455 -461 0
-455 -463 0
-455 -465 0
-455 -467 0
-455 -469 0
-455 -471 0
-455 -473 0
-455 -475 0
-455 -477 0
-455 -479 0
-455 -481 0
-455 -483 0
-455 -485 0
-455 -487 0
-455 -489 0
-455 -491 0
-455 -493 0
-455 -495 0
-457 -459 0
-457 -461 0
-457 -463 0
-457 -465 0
-457 -467 0
-457 -469 0
-457 -471 0
-457 -473 0
-457 -475 0
-457 -477 0
-457 -479 0
-457 -481 0
-457 -483 0
-457 -485 0
-457 -487 0
-457 -489 0
-457 -491 0
-457 -493 0
-457 -495 0
-459 -461 0
-459 -463 0
-459 -465 0
-459 -467 0
-459 -469 0
-459 -471 0
-459 -473 0
-459 -475 0
-459 -477 0
-459 -479 0
-459 -481 0
-459 -483 0
-459 -485 0
-459 -487 0
-459 -489 0
-459 -491 0
-459 -493 0
-459 -495 0
-461 -463 0
-461 -465 0
-461 -467 0
-461 -469 0
-461 -471 0
-461 -473 0
-461 -475 0
-461 -477 0
-461 -479 0
-461 -481 0
-461 -483 0
-461 -485 0
-461 -487 0
-461 -489 0
-461 -491 0
-461 -493 0
-461 -495 0
-463 -465 0
-463 -467 0
-463 -469 0
-463 -471 0
-463 -473 0
-463 -475 0
-463 -477 0
-463 -479 0
-463 -481 0
-463 -483 0
-463 -485 0
-463 -487 0
-463 -489 0
-463 -491 0
-463 -493 0
-463 -495 0
-465 -467 0
-465 -469 0
-465 -471 0
-465 -473 0
-465 -475 0
-465 -477 0
-465 -479 0
-465 -481 0
-465 -483 0
-465 -485 0
-465 -487 0
-465 -489 0
-465 -491 0
-465 -493 0
-465 -495 0
-467 -469 0
-467 -471 0
-467 -473 0
-467 -475 0
-467 -477 0
-467 -479 0
-467 -481 0
-467 -483 0
-467 -485 0
-467 -487 0
-467 -489 0
-467 -491 0
-467 -493 0
-467 -495 0
-469 -471 0
-469 -473 0
-469 -475 0
-469 -477 0
-469 -479 0
-469 -481 0
-469 -483 0
-469 -485 0
-469 -487 0
-469 -489 0
-469 -491 0
-469 -493 0
-469 -495 0
-471 -473 0
-471 -475 0
-471 -477 0
-471 -479 0
-471 -481 0
-471 -483 0
-471 -485 0
-471 -487 0
-471 -489 0
-471 -491 0
-471 -493 0
-471 -495 0
-473 -475 0
-473 -477 0
-473 -479 0
-473 -481 0
-473 -483 0
-473 -485 0
-473 -487 0
-473 -489 0
-473 -491 0
-473 -493 0
-473 -495 0
-475 -477 0
-475 -479 0
-475 -481 0
-475 -483 0
-475 -485 0
-475 -487 0
-475 -489 0
-475 -491 0
-475 -493 0
-475 -495 0
-477 -479 0
-477 -481 0
-477 -483 0
-477 -485 0
-477 -487 0
-477 -489 0
-477 -491 0
-477 -493 0
-477 -495 0
-479 -481 0
-479 -483 0
-479 -485 0
-479 -487 0
-479 -489 0
-479 -491 0
-479 -493 0
-479 -495 0
-481 -483 0
-481 -485 0
-481 -487 0
-481 -489 0
-481 -491 0
-481 -493 0
-481 -495 0
-483 -485 0
-483 -487 0
-483 -489 0
-483 -491 0
-483 -493 0
-483 -495 0
-485 -487 0
-485 -489 0
-485 -491 0
-485 -493 0
-485 -495 0
-487 -489 0
-487 -491 0
-487 -493 0
-487 -495 0
-489 -491 0
-489 -493 0
-489 -495 0
-491 -493 0
-491 -495 0
-493 -495 0
-329 101 0
-329 -80 0
-329 -74 3 0
-329 -74 69 0
-329 -74 -23 0
-329 -74 -26 0
-329 -74 -29 0
-329 -74 -32 0
-329 -74 -35 0
-329 -74 -20 -77 0
-329 -74 -38 -86 0
-329 -74 -53 -95 0
-329 -74 167 221 275 0
-329 -77 3 0
-329 -77 72 0
-329 -77 -23 0
-329 -77 -26 0
-329 -77 -29 0
-329 -77 -32 0
-329 -77 -35 0
-329 -77 -20 -80 0
-329 -77 -38 -89 0
-329 -77 -53 -98 0
-329 -77 170 224 278 0
-329 -2 -74 -68 0
-329 -2 -77 -71 0
-331 101 0
-331 -80 0
-331 -74 6 0
-331 -74 69 0
-331 -74 -20 0
-331 -74 -26 0
-331 -74 -29 0
-331 -74 -32 0
-331 -74 -35 0
-331 -74 -23 -77 0
-331 -74 -38 -86 0
-331 -74 -41 -86 0
-331 -74 -53 -95 0
-331 -74 -56 -95 0
-331 -74 176 230 284 0
-331 -77 6 0
-331 -77 72 0
-331 -77 -20 0
-331 -77 -26 0
-331 -77 -29 0
-331 -77 -32 0
-331 -77 -35 0
-331 -77 -23 -80 0
-331 -77 -38 -89 0
-331 -77 -41 -89 0
-331 -77 -53 -98 0
-331 -77 -56 -98 0
-331 -77 179 233 287 0
-331 -5 -74 -68 0
-331 -5 -77 -71 0
-333 101 0
-333 -80 0
-333 -74 9 0
-333 -74 69 0
-333 -74 -20 0
-333 -74 -23 0
-333 -74 -29 0
-333 -74 -32 0
-333 -74 -35 0
-333 -74 -26 -77 0
-333 -74 -41 -86 0
-333 -74 -44 -86 0
-333 -74 -53 -95 0
-333 -74 -56 -95 0
-333 -74 -59 -95 0
-333 -74 185 239 293 0
-333 -77 9 0
-333 -77 72 0
-333 -77 -20 0
-333 -77 -23 0
-333 -77 -29 0
-333 -77 -32 0
-333 -77 -35 0
-333 -77 -26 -80 0
-333 -77 -41 -89 0
-333 -77 -44 -89 0
-333 -77 -53 -98 0
-333 -77 -56 -98 0
-333 -77 -59 -98 0
-333 -77 188 242 296 0
-333 -8 -74 -68 0
-333 -8 -77 -71 0
-335 101 0
-335 -80 0
-335 -74 12 0
-335 -74 69 0
-335 -74 -20 0
-335 -74 -23 0
-335 -74 -26 0
-335 -74 -32 0
-335 -74 -35 0
-335 -74 -29 -77 0
-335 -74 -44 -86 0
-335 -74 -47 -86 0
-335 -74 -56 -95 0
-335 -74 -59 -95 0
-335 -74 -62 -95 0
-335 -74 194 248 302 0
-335 -77 12 0
-335 -77 72 0
-335 -77 -20 0
-335 -77 -23 0
-335 -77 -26 0
-335 -77 -32 0
-335 -77 -35 0
-335 -77 -29 -80 0
-335 -77 -44 -89 0
-335 -77 -47 -89 0
-335 -77 -56 -98 0
-335 -77 -59 -98 0
-335 -77 -62 -98 0
-335 -77 197 251 305 0
-335 -11 -74 -68 0
-335 -11 -77 -71 0
-337 101 0
-337 -80 0
-337 -74 15 0
-337 -74 69 0
-337 -74 -20 0
-337 -74 -23 0
-337 -74 -26 0
-337 -74 -29 0
-337 -74 -35 0
-337 -74 -32 -77 0
-337 -74 -47 -86 0
-337 -74 -50 -86 0
-337 -74 -59 -95 0
-337 -74 -62 -95 0
-337 -74 203 257 311 0
-337 -77 15 0
-337 -77 72 0
-337 -77 -20 0
-337 -77 -23 0
-337 -77 -26 0
-337 -77 -29 0
-337 -77 -35 0
-337 -77 -32 -80 0
-337 -77 -47 -89 0
-337 -77 -50 -89 0
-337 -77 -59 -98 0
-337 -77 -62 -98 0
-337 -77 206 260 314 0
-337 -14 -74 -68 0
-337 -14 -77 -71 0
-339 101 0
-339 -80 0
-339 -74 18 0
-339 -74 69 0
-339 -74 -20 0
-339 -74 -23 0
-339 -74 -26 0
-339 -74 -29 0
-339 -74 -32 0
-339 -74 -35 -77 0
-339 -74 -50 -86 0
-339 -74 -62 -95 0
-339 -74 212 266 320 0
-339 -77 18 0
-339 -77 72 0
-339 -77 -20 0
-339 -77 -23 0
-339 -77 -26 0
-339 -77 -29 0
-339 -77 -32 0
-339 -77 -35 -80 0
-339 -77 -50 -89 0
-339 -77 -62 -98 0
-339 -77 215 269 323 0
-339 -17 -74 -68 0
-339 -17 -77 -71 0
-341 101 0
-341 -89 0
-341 -83 3 0
-341 -83 69 0
-341 -83 -41 0
-341 -83 -44 0
-341 -83 -47 0
-341 -83 -50 0
-341 -83 -20 -77 0
-341 -83 -38 -86 0
-341 -83 -53 -95 0
-341 -83 167 221 275 0
-341 -86 3 0
-341 -86 72 0
-341 -86 -41 0
-341 -86 -44 0
-341 -86 -47 0
-341 -86 -50 0
-341 -86 -20 -80 0
-341 -86 -38 -89 0
-341 -86 -53 -98 0
-341 -86 170 224 278 0
-341 -2 -83 -68 0
-341 -2 -86 -71 0
-343 101 0
-343 -89 0
-343 -83 6 0
-343 -83 69 0
-343 -83 -44 0
-343 -83 -47 0
-343 -83 -50 0
-343 -83 -23 -77 0
-343 -83 -38 -86 0
-343 -83 -41 -86 0
-343 -83 -53 -95 0
-343 -83 -56 -95 0
-343 -83 176 230 284 0
-343 -86 6 0
-343 -86 72 0
-343 -86 -44 0
-343 -86 -47 0
-343 -86 -50 0
-343 -86 -23 -80 0
-343 -86 -38 -89 0
-343 -86 -41 -89 0
-343 -86 -53 -98 0
-343 -86 -56 -98 0
-343 -86 179 233 287 0
-343 -5 -83 -68 0
-343 -5 -86 -71 0
-345 101 0
-345 -89 0
-345 -83 9 0
-345 -83 69 0
-345 -83 -38 0
-345 -83 -47 0
-345 -83 -50 0
-345 -83 -26 -77 0
-345 -83 -41 -86 0
-345 -83 -44 -86 0
-345 -83 -53 -95 0
-345 -83 -56 -95 0
-345 -83 -59 -95 0
-345 -83 185 239 293 0
-345 -86 9 0
-345 -86 72 0
-345 -86 -38 0
-345 -86 -47 0
-345 -86 -50 0
-345 -86 -26 -80 0
-345 -86 -41 -89 0
-345 -86 -44 -89 0
-345 -86 -53 -98 0
-345 -86 -56 -98 0
-345 -86 -59 -98 0
-345 -86 188 242 296 0
-345 -8 -83 -68 0
-345 -8 -86 -71 0
-347 101 0
-347 -89 0
-347 -83 12 0
-347 -83 69 0
-347 -83 -38 0
-347 -83 -41 0
-347 -83 -50 0
-347 -83 -29 -77 0
-347 -83 -44 -86 0
-347 -83 -47 -86 0
-347 -83 -56 -95 0
-347 -83 -59 -95 0
-347 -83 -62 -95 0
-347 -83 194 248 302 0
-347 -86 12 0
-347 -86 72 0
-347 -86 -38 0
-347 -86 -41 0
-347 -86 -50 0
-347 -86 -29 -80 0
-347 -86 -44 -89 0
-347 -86 -47 -89 0
-347 -86 -56 -98 0
-347 -86 -59 -98 0
-347 -86 -62 -98 0
-347 -86 197 251 305 0
-347 -11 -83 -68 0
-347 -11 -86 -71 0
-349 101 0
-349 -89 0
-349 -83 15 0
-349 -83 69 0
-349 -83 -38 0
-349 -83 -41 0
-349 -83 -44 0
-349 -83 -32 -77 0
-349 -83 -47 -86 0
-349 -83 -50 -86 0
-349 -83 -59 -95 0
-349 -83 -62 -95 0
-349 -83 203 257 311 0
-349 -86 15 0
-349 -86 72 0
-349 -86 -38 0
-349 -86 -41 0
-349 -86 -44 0
-349 -86 -32 -80 0
-349 -86 -47 -89 0
-349 -86 -50 -89 0
-349 -86 -59 -98 0
-349 -86 -62 -98 0
-349 -86 206 260 314 0
-349 -14 -83 -68 0
-349 -14 -86 -71 0
-351 101 0
-351 -89 0
-351 -83 18 0
-351 -83 69 0
-351 -83 -38 0
-351 -83 -41 0
-351 -83 -44 0
-351 -83 -47 0
-351 -83 -35 -77 0
-351 -83 -50 -86 0
-351 -83 -62 -95 0
-351 -83 212 266 320 0
-351 -86 18 0
-351 -86 72 0
-351 -86 -38 0
-351 -86 -41 0
-351 -86 -44 0
-351 -86 -47 0
-351 -86 -35 -80 0
-351 -86 -50 -89 0
-351 -86 -62 -98 0
-351 -86 215 269 323 0
-351 -17 -83 -68 0
-351 -17 -86 -71 0
-353 101 0
-353 -98 0
-353 -92 3 0
-353 -92 69 0
-353 -92 -56 0
-353 -92 -59 0
-353 -92 -62 0
-353 -92 -20 -77 0
-353 -92 -38 -86 0
-353 -92 -53 -95 0
-353 -92 167 221 275 0
-353 -95 3 0
-353 -95 72 0
-353 -95 -56 0
-353 -95 -59 0
-353 -95 -62 0
-353 -95 -20 -80 0
-353 -95 -38 -89 0
-353 -95 -53 -98 0
-353 -95 170 224 278 0
-353 -2 -92 -68 0
-353 -2 -95 -71 0
-355 101 0
-355 -98 0
-355 -92 6 0
-355 -92 69 0
-355 -92 -59 0
-355 -92 -62 0
-355 -92 -23 -77 0
-355 -92 -38 -86 0
-355 -92 -41 -86 0
-355 -92 -53 -95 0
-355 -92 -56 -95 0
-355 -92 176 230 284 0
-355 -95 6 0
-355 -95 72 0
-355 -95 -59 0
-355 -95 -62 0
-355 -95 -23 -80 0
-355 -95 -38 -89 0
-355 -95 -41 -89 0
-355 -95 -53 -98 0
-355 -95 -56 -98 0
-355 -95 179 233 287 0
-355 -5 -92 -68 0
-355 -5 -95 -71 0
-357 101 0
-357 -98 0
-357 -92 9 0
-357 -92 69 0
-357 -92 -62 0
-357 -92 -26 -77 0
-357 -92 -41 -86 0
-357 -92 -44 -86 0
-357 -92 -53 -95 0
-357 -92 -56 -95 0
-357 -92 -59 -95 0
-357 -92 185 239 293 0
-357 -95 9 0
-357 -95 72 0
-357 -95 -62 0
-357 -95 -26 -80 0
-357 -95 -41 -89 0
-357 -95 -44 -89 0
-357 -95 -53 -98 0
-357 -95 -56 -98 0
-357 -95 -59 -98 0
-357 -95 188 242 296 0
-357 -8 -92 -68 0
-357 -8 -95 -71 0
-359 101 0
-359 -98 0
-359 -92 12 0
-359 -92 69 0
-359 -92 -53 0
-359 -92 -29 -77 0
-359 -92 -44 -86 0
-359 -92 -47 -86 0
-359 -92 -56 -95 0
-359 -92 -59 -95 0
-359 -92 -62 -95 0
-359 -92 194 248 302 0
-359 -95 12 0
-359 -95 72 0
-359 -95 -53 0
-359 -95 -29 -80 0
-359 -95 -44 -89 0
-359 -95 -47 -89 0
-359 -95 -56 -98 0
-359 -95 -59 -98 0
-359 -95 -62 -98 0
-359 -95 197 251 305 0
-359 -11 -92 -68 0
-359 -11 -95 -71 0
-361 101 0
-361 -98 0
-361 -92 15 0
-361 -92 69 0
-361 -92 -53 0
-361 -92 -56 0
-361 -92 -32 -77 0
-361 -92 -47 -86 0
-361 -92 -50 -86 0
-361 -92 -59 -95 0
-361 -92 -62 -95 0
-361 -92 203 257 311 0
-361 -95 15 0
-361 -95 72 0
-361 -95 -53 0
-361 -95 -56 0
-361 -95 -32 -80 0
-361 -95 -47 -89 0
-361 -95 -50 -89 0
-361 -95 -59 -98 0
-361 -95 -62 -98 0
-361 -95 206 260 314 0
-361 -14 -92 -68 0
-361 -14 -95 -71 0
-363 101 0
-363 -98 0
-363 -92 18 0
-363 -92 69 0
-363 -92 -53 0
-363 -92 -56 0
-363 -92 -59 0
-363 -92 -35 -77 0
-363 -92 -50 -86 0
-363 -92 -62 -95 0
-363 -92 212 266 320 0
-363 -95 18 0
-363 -95 72 0
-363 -95 -53 0
-363 -95 -56 0
-363 -95 -59 0
-363 -95 -35 -80 0
-363 -95 -50 -89 0
-363 -95 -62 -98 0
-363 -95 215 269 323 0
-363 -17 -92 -68 0
-363 -17 -95 -71 0
-365 101 0
-365 3 0
-365 66 0
-365 -2 -65 0
-365 -20 -74 0
-365 -38 -83 0
-365 -53 -92 0
-367 101 0
-367 6 0
-367 66 0
-367 -5 -65 0
-367 -23 -74 0
-367 -38 -83 0
-367 -41 -83 0
-367 -53 -92 0
-367 -56 -92 0
-369 101 0
-369 9 0
-369 66 0
-369 -8 -65 0
-369 -26 -74 0
-369 -41 -83 0
-369 -44 -83 0
-369 -53 -92 0
-369 -56 -92 0
-369 -59 -92 0
-371 101 0
-371 12 0
-371 66 0
-371 -11 -65 0
-371 -29 -74 0
-371 -44 -83 0
-371 -47 -83 0
-371 -56 -92 0
-371 -59 -92 0
-371 -62 -92 0
-373 101 0
-373 15 0
-373 66 0
-373 -14 -65 0
-373 -32 -74 0
-373 -47 -83 0
-373 -50 -83 0
-373 -59 -92 0
-373 -62 -92 0
-375 101 0
-375 18 0
-375 66 0
-375 -17 -65 0
-375 -35 -74 0
-375 -50 -83 0
-375 -62 -92 0
-377 104 0
-377 -71 0
-377 -65 21 0
-377 -65 78 0
-377 -65 -5 0
-377 -65 -8 0
-377 -65 -11 0
-377 -65 -14 0
-377 -65 -17 0
-377 -65 -2 -68 0
-377 -65 -38 -86 0
-377 -65 -53 -95 0
-377 -65 113 221 275 0
-377 -68 21 0
-377 -68 81 0
-377 -68 -5 0
-377 -68 -8 0
-377 -68 -11 0
-377 -68 -14 0
-377 -68 -17 0
-377 -68 -2 -71 0
-377 -68 -38 -89 0
-377 -68 -53 -98 0
-377 -68 116 224 278 0
-377 -20 -65 -77 0
-377 -20 -68 -80 0
-379 104 0
-379 -71 0
-379 -65 24 0
-379 -65 78 0
-379 -65 -2 0
-379 -65 -8 0
-379 -65 -11 0
-379 -65 -14 0
-379 -65 -17 0
-379 -65 -5 -68 0
-379 -65 -38 -86 0
-379 -65 -41 -86 0
-379 -65 -53 -95 0
-379 -65 -56 -95 0
-379 -65 122 230 284 0
-379 -68 24 0
-379 -68 81 0
-379 -68 -2 0
-379 -68 -8 0
-379 -68 -11 0
-379 -68 -14 0
-379 -68 -17 0
-379 -68 -5 -71 0
-379 -68 -38 -89 0
-379 -68 -41 -89 0
-379 -68 -53 -98 0
-379 -68 -56 -98 0
-379 -68 125 233 287 0
-379 -23 -65 -77 0
-379 -23 -68 -80 0
-381 104 0
-381 -71 0
-381 -65 27 0
-381 -65 78 0
-381 -65 -2 0
-381 -65 -5 0
-381 -65 -11 0
-381 -65 -14 0
-381 -65 -17 0
-381 -65 -8 -68 0
-381 -65 -41 -86 0
-381 -65 -44 -86 0
-381 -65 -53 -95 0
-381 -65 -56 -95 0
-381 -65 -59 -95 0
-381 -65 131 239 293 0
-381 -68 27 0
-381 -68 81 0
-381 -68 -2 0
-381 -68 -5 0
-381 -68 -11 0
-381 -68 -14 0
-381 -68 -17 0
-381 -68 -8 -71 0
-381 -68 -41 -89 0
-381 -68 -44 -89 0
-381 -68 -53 -98 0
-381 -68 -56 -98 0
-381 -68 -59 -98 0
-381 -68 134 242 296 0
-381 -26 -65 -77 0
-381 -26 -68 -80 0
-383 104 0
-383 -71 0
-383 -65 30 0
-383 -65 78 0
-383 -65 -2 0
-383 -65 -5 0
-383 -65 -8 0
-383 -65 -14 0
-383 -65 -17 0
-383 -65 -11 -68 0
-383 -65 -44 -86 0
-383 -65 -47 -86 0
-383 -65 -56 -95 0
-383 -65 -59 -95 0
-383 -65 -62 -95 0
-383 -65 140 248 302 0
-383 -68 30 0
-383 -68 81 0
-383 -68 -2 0
-383 -68 -5 0
-383 -68 -8 0
-383 -68 -14 0
-383 -68 -17 0
-383 -68 -11 -71 0
-383 -68 -44 -89 0
-383 -68 -47 -89 0
-383 -68 -56 -98 0
-383 -68 -59 -98 0
-383 -68 -62 -98 0
-383 -68 143 251 305 0
-383 -29 -65 -77 0
-383 -29 -68 -80 0
-385 104 0
-385 -71 0
-385 -65 33 0
-385 -65 78 0
-385 -65 -2 0
-385 -65 -5 0
-385 -65 -8 0
-385 -65 -11 0
-385 -65 -17 0
-385 -65 -14 -68 0
-385 -65 -47 -86 0
-385 -65 -50 -86 0
-385 -65 -59 -95 0
-385 -65 -62 -95 0
-385 -65 149 257 311 0
-385 -68 33 0
-385 -68 81 0
-385 -68 -2 0
-385 -68 -5 0
-385 -68 -8 0
-385 -68 -11 0
-385 -68 -17 0
-385 -68 -14 -71 0
-385 -68 -47 -89 0
-385 -68 -50 -89 0
-385 -68 -59 -98 0
-385 -68 -62 -98 0
-385 -68 152 260 314 0
-385 -32 -65 -77 0
-385 -32 -68 -80 0
-387 104 0
-387 -71 0
-387 -65 36 0
-387 -65 78 0
-387 -65 -2 0
-387 -65 -5 0
-387 -65 -8 0
-387 -65 -11 0
-387 -65 -14 0
-387 -65 -17 -68 0
-387 -65 -50 -86 0
-387 -65 -62 -95 0
-387 -65 158 266 320 0
-387 -68 36 0
-387 -68 81 0
-387 -68 -2 0
-387 -68 -5 0
-387 -68 -8 0
-387 -68 -11 0
-387 -68 -14 0
-387 -68 -17 -71 0
-387 -68 -50 -89 0
-387 -68 -62 -98 0
-387 -68 161 269 323 0
-387 -35 -65 -77 0
-387 -35 -68 -80 0
-389 104 0
-389 -89 0
-389 -83 21 0
-389 -83 78 0
-389 -83 -41 0
-389 -83 -44 0
-389 -83 -47 0
-389 -83 -50 0
-389 -83 -2 -68 0
-389 -83 -38 -86 0
-389 -83 -53 -95 0
-389 -83 113 221 275 0
-389 -86 21 0
-389 -86 81 0
-389 -86 -41 0
-389 -86 -44 0
-389 -86 -47 0
-389 -86 -50 0
-389 -86 -2 -71 0
-389 -86 -38 -89 0
-389 -86 -53 -98 0
-389 -86 116 224 278 0
-389 -20 -83 -77 0
-389 -20 -86 -80 0
-391 104 0
-391 -89 0
-391 -83 24 0
-391 -83 78 0
-391 -83 -44 0
-391 -83 -47 0
-391 -83 -50 0
-391 -83 -5 -68 0
-391 -83 -38 -86 0
-391 -83 -41 -86 0
-391 -83 -53 -95 0
-391 -83 -56 -95 0
-391 -83 122 230 284 0
-391 -86 24 0
-391 -86 81 0
-391 -86 -44 0
-391 -86 -47 0
-391 -86 -50 0
-391 -86 -5 -71 0
-391 -86 -38 -89 0
-391 -86 -41 -89 0
-391 -86 -53 -98 0
-391 -86 -56 -98 0
-391 -86 125 233 287 0
-391 -23 -83 -77 0
-391 -23 -86 -80 0
-393 104 0
-393 -89 0
-393 -83 27 0
-393 -83 78 0
-393 -83 -38 0
-393 -83 -47 0
-393 -83 -50 0
-393 -83 -8 -68 0
-393 -83 -41 -86 0
-393 -83 -44 -86 0
-393 -83 -53 -95 0
-393 -83 -56 -95 0
-393 -83 -59 -95 0
-393 -83 131 239 293 0
-393 -86 27 0
-393 -86 81 0
-393 -86 -38 0
-393 -86 -47 0
-393 -86 -50 0
-393 -86 -8 -71 0
-393 -86 -41 -89 0
-393 -86 -44 -89 0
-393 -86 -53 -98 0
-393 -86 -56 -98 0
-393 -86 -59 -98 0
-393 -86 134 242 296 0
-393 -26 -83 -77 0
-393 -26 -86 -80 0
-395 104 0
-395 -89 0
-395 -83 30 0
-395 -83 78 0
-395 -83 -38 0
-395 -83 -41 0
-395 -83 -50 0
-395 -83 -11 -68 0
-395 -83 -44 -86 0
-395 -83 -47 -86 0
-395 -83 -56 -95 0
-395 -83 -59 -95 0
-395 -83 -62 -95 0
-395 -83 140 248 302 0
-395 -86 30 0
-395 -86 81 0
-395 -86 -38 0
-395 -86 -41 0
-395 -86 -50 0
-395 -86 -11 -71 0
-395 -86 -44 -89 0
-395 -86 -47 -89 0
-395 -86 -56 -98 0
-395 -86 -59 -98 0
-395 -86 -62 -98 0
-395 -86 143 251 305 0
-395 -29 -83 -77 0
-395 -29 -86 -80 0
-397 104 0
-397 -89 0
-397 -83 33 0
-397 -83 78 0
-397 -83 -38 0
-397 -83 -41 0
-397 -83 -44 0
-397 -83 -14 -68 0
-397 -83 -47 -86 0
-397 -83 -50 -86 0
-397 -83 -59 -95 0
-397 -83 -62 -95 0
-397 -83 149 257 311 0
-397 -86 33 0
-397 -86 81 0
-397 -86 -38 0
-397 -86 -41 0
-397 -86 -44 0
-397 -86 -14 -71 0
-397 -86 -47 -89 0
-397 -86 -50 -89 0
-397 -86 -59 -98 0
-397 -86 -62 -98 0
-397 -86 152 260 314 0
-397 -32 -83 -77 0
-397 -32 -86 -80 0
-399 104 0
-399 -89 0
-399 -83 36 0
-399 -83 78 0
-399 -83 -38 0
-399 -83 -41 0
-399 -83 -44 0
-399 -83 -47 0
-399 -83 -17 -68 0
-399 -83 -50 -86 0
-399 -83 -62 -95 0
-399 -83 158 266 320 0
-399 -86 36 0
-399 -86 81 0
-399 -86 -38 0
-399 -86 -41 0
-399 -86 -44 0
-399 -86 -47 0
-399 -86 -17 -71 0
-399 -86 -50 -89 0
-399 -86 -62 -98 0
-399 -86 161 269 323 0
-399 -35 -83 -77 0
-399 -35 -86 -80 0
-401 104 0
-401 -98 0
-401 -92 21 0
-401 -92 78 0
-401 -92 -56 0
-401 -92 -59 0
-401 -92 -62 0
-401 -92 -2 -68 0
-401 -92 -38 -86 0
-401 -92 -53 -95 0
-401 -92 113 221 275 0
-401 -95 21 0
-401 -95 81 0
-401 -95 -56 0
-401 -95 -59 0
-401 -95 -62 0
-401 -95 -2 -71 0
-401 -95 -38 -89 0
-401 -95 -53 -98 0
-401 -95 116 224 278 0
-401 -20 -92 -77 0
-401 -20 -95 -80 0
-403 104 0
-403 -98 0
-403 -92 24 0
-403 -92 78 0
-403 -92 -59 0
-403 -92 -62 0
-403 -92 -5 -68 0
-403 -92 -38 -86 0
-403 -92 -41 -86 0
-403 -92 -53 -95 0
-403 -92 -56 -95 0
-403 -92 122 230 284 0
-403 -95 24 0
-403 -95 81 0
-403 -95 -59 0
-403 -95 -62 0
-403 -95 -5 -71 0
-403 -95 -38 -89 0
-403 -95 -41 -89 0
-403 -95 -53 -98 0
-403 -95 -56 -98 0
-403 -95 125 233 287 0
-403 -23 -92 -77 0
-403 -23 -95 -80 0
-405 104 0
-405 -98 0
-405 -92 27 0
-405 -92 78 0
-405 -92 -62 0
-405 -92 -8 -68 0
-405 -92 -41 -86 0
-405 -92 -44 -86 0
-405 -92 -53 -95 0
-405 -92 -56 -95 0
-405 -92 -59 -95 0
-405 -92 131 239 293 0
-405 -95 27 0
-405 -95 81 0
-405 -95 -62 0
-405 -95 -8 -71 0
-405 -95 -41 -89 0
-405 -95 -44 -89 0
-405 -95 -53 -98 0
-405 -95 -56 -98 0
-405 -95 -59 -98 0
-405 -95 134 242 296 0
-405 -26 -92 -77 0
-405 -26 -95 -80 0
-407 104 0
-407 -98 0
-407 -92 30 0
-407 -92 78 0
-407 -92 -53 0
-407 -92 -11 -68 0
-407 -92 -44 -86 0
-407 -92 -47 -86 0
-407 -92 -56 -95 0
-407 -92 -59 -95 0
-407 -92 -62 -95 0
-407 -92 140 248 302 0
-407 -95 30 0
-407 -95 81 0
-407 -95 -53 0
-407 -95 -11 -71 0
-407 -95 -44 -89 0
-407 -95 -47 -89 0
-407 -95 -56 -98 0
-407 -95 -59 -98 0
-407 -95 -62 -98 0
-407 -95 143 251 305 0
-407 -29 -92 -77 0
-407 -29 -95 -80 0
-409 104 0
-409 -98 0
-409 -92 33 0
-409 -92 78 0
-409 -92 -53 0
-409 -92 -56 0
-409 -92 -14 -68 0
-409 -92 -47 -86 0
-409 -92 -50 -86 0
-409 -92 -59 -95 0
-409 -92 -62 -95 0
-409 -92 149 257 311 0
-409 -95 33 0
-409 -95 81 0
-409 -95 -53 0
-409 -95 -56 0
-409 -95 -14 -71 0
-409 -95 -47 -89 0
-409 -95 -50 -89 0
-409 -95 -59 -98 0
-409 -95 -62 -98 0
-409 -95 152 260 314 0
-409 -32 -92 -77 0
-409 -32 -95 -80 0
-411 104 0
-411 -98 0
-411 -92 36 0
-411 -92 78 0
-411 -92 -53 0
-411 -92 -56 0
-411 -92 -59 0
-411 -92 -17 -68 0
-411 -92 -50 -86 0
-411 -92 -62 -95 0
-411 -92 158 266 320 0
-411 -95 36 0
-411 -95 81 0
-411 -95 -53 0
-411 -95 -56 0
-411 -95 -59 0
-411 -95 -17 -71 0
-411 -95 -50 -89 0
-411 -95 -62 -98 0
-411 -95 161 269 323 0
-411 -35 -92 -77 0
-411 -35 -95 -80 0
-413 104 0
-413 21 0
-413 75 0
-413 -20 -74 0
-413 -2 -65 0
-413 -38 -83 0
-413 -53 -92 0
-415 104 0
-415 24 0
-415 75 0
-415 -23 -74 0
-415 -5 -65 0
-415 -38 -83 0
-415 -41 -83 0
-415 -53 -92 0
-415 -56 -92 0
-417 104 0
-417 27 0
-417 75 0
-417 -26 -74 0
-417 -8 -65 0
-417 -41 -83 0
-417 -44 -83 0
-417 -53 -92 0
-417 -56 -92 0
-417 -59 -92 0
-419 104 0
-419 30 0
-419 75 0
-419 -29 -74 0
-419 -11 -65 0
-419 -44 -83 0
-419 -47 -83 0
-419 -56 -92 0
-419 -59 -92 0
-419 -62 -92 0
-421 104 0
-421 33 0
-421 75 0
-421 -32 -74 0
-421 -14 -65 0
-421 -47 -83 0
-421 -50 -83 0
-421 -59 -92 0
-421 -62 -92 0
-423 104 0
-423 36 0
-423 75 0
-423 -35 -74 0
-423 -17 -65 0
-423 -50 -83 0
-423 -62 -92 0
-425 107 0
-425 -71 0
-425 -65 39 0
-425 -65 87 0
-425 -65 -8 0
-425 -65 -11 0
-425 -65 -14 0
-425 -65 -17 0
-425 -65 -2 -68 0
-425 -65 -5 -68 0
-425 -65 -20 -77 0
-425 -65 -23 -77 0
-425 -65 -53 -95 0
-425 -65 -56 -95 0
-425 -65 113 167 275 122 176 284 0
-425 -68 39 0
-425 -68 90 0
-425 -68 -8 0
-425 -68 -11 0
-425 -68 -14 0
-425 -68 -17 0
-425 -68 -2 -71 0
-425 -68 -5 -71 0
-425 -68 -20 -80 0
-425 -68 -23 -80 0
-425 -68 -53 -98 0
-425 -68 -56 -98 0
-425 -68 116 170 278 125 179 287 0
-425 -38 -65 -86 0
-425 -38 -68 -89 0
-427 107 0
-427 -71 0
-427 -65 42 0
-427 -65 87 0
-427 -65 -2 0
-427 -65 -11 0
-427 -65 -14 0
-427 -65 -17 0
-427 -65 -5 -68 0
-427 -65 -8 -68 0
-427 -65 -23 -77 0
-427 -65 -26 -77 0
-427 -65 -53 -95 0
-427 -65 -56 -95 0
-427 -65 -59 -95 0
-427 -65 122 176 284 131 185 293 0
-427 -68 42 0
-427 -68 90 0
-427 -68 -2 0
-427 -68 -11 0
-427 -68 -14 0
-427 -68 -17 0
-427 -68 -5 -71 0
-427 -68 -8 -71 0
-427 -68 -23 -80 0
-427 -68 -26 -80 0
-427 -68 -53 -98 0
-427 -68 -56 -98 0
-427 -68 -59 -98 0
-427 -68 125 179 287 134 188 296 0
-427 -41 -65 -86 0
-427 -41 -68 -89 0
-429 107 0
-429 -71 0
-429 -65 45 0
-429 -65 87 0
-429 -65 -2 0
-429 -65 -5 0
-429 -65 -14 0
-429 -65 -17 0
-429 -65 -8 -68 0
-429 -65 -11 -68 0
-429 -65 -26 -77 0
-429 -65 -29 -77 0
-429 -65 -53 -95 0
-429 -65 -56 -95 0
-429 -65 -59 -95 0
-429 -65 -62 -95 0
-429 -65 131 185 293 140 194 302 0
-429 -68 45 0
-429 -68 90 0
-429 -68 -2 0
-429 -68 -5 0
-429 -68 -14 0
-429 -68 -17 0
-429 -68 -8 -71 0
-429 -68 -11 -71 0
-429 -68 -26 -80 0
-429 -68 -29 -80 0
-429 -68 -53 -98 0
-429 -68 -56 -98 0
-429 -68 -59 -98 0
-429 -68 -62 -98 0
-429 -68 134 188 296 143 197 305 0
-429 -44 -65 -86 0
-429 -44 -68 -89 0
-431 107 0
-431 -71 0
-431 -65 48 0
-431 -65 87 0
-431 -65 -2 0
-431 -65 -5 0
-431 -65 -8 0
-431 -65 -17 0
-431 -65 -11 -68 0
-431 -65 -14 -68 0
-431 -65 -29 -77 0
-431 -65 -32 -77 0
-431 -65 -56 -95 0
-431 -65 -59 -95 0
-431 -65 -62 -95 0
-431 -65 140 194 302 149 203 311 0
-431 -68 48 0
-431 -68 90 0
-431 -68 -2 0
-431 -68 -5 0
-431 -68 -8 0
-431 -68 -17 0
-431 -68 -11 -71 0
-431 -68 -14 -71 0
-431 -68 -29 -80 0
-431 -68 -32 -80 0
-431 -68 -56 -98 0
-431 -68 -59 -98 0
-431 -68 -62 -98 0
-431 -68 143 197 305 152 206 314 0
-431 -47 -65 -86 0
-431 -47 -68 -89 0
-433 107 0
-433 -71 0
-433 -65 51 0
-433 -65 87 0
-433 -65 -2 0
-433 -65 -5 0
-433 -65 -8 0
-433 -65 -11 0
-433 -65 -14 -68 0
-433 -65 -17 -68 0
-433 -65 -32 -77 0
-433 -65 -35 -77 0
-433 -65 -59 -95 0
-433 -65 -62 -95 0
-433 -65 149 203 311 158 212 320 0
-433 -68 51 0
-433 -68 90 0
-433 -68 -2 0
-433 -68 -5 0
-433 -68 -8 0
-433 -68 -11 0
-433 -68 -14 -71 0
-433 -68 -17 -71 0
-433 -68 -32 -80 0
-433 -68 -35 -80 0
-433 -68 -59 -98 0
-433 -68 -62 -98 0
-433 -68 152 206 314 161 215 323 0
-433 -50 -65 -86 0
-433 -50 -68 -89 0
-435 107 0
-435 -80 0
-435 -74 39 0
-435 -74 87 0
-435 -74 -26 0
-435 -74 -29 0
-435 -74 -32 0
-435 -74 -35 0
-435 -74 -2 -68 0
-435 -74 -5 -68 0
-435 -74 -20 -77 0
-435 -74 -23 -77 0
-435 -74 -53 -95 0
-435 -74 -56 -95 0
-435 -74 113 167 275 122 176 284 0
-435 -77 39 0
-435 -77 90 0
-435 -77 -26 0
-435 -77 -29 0
-435 -77 -32 0
-435 -77 -35 0
-435 -77 -2 -71 0
-435 -77 -5 -71 0
-435 -77 -20 -80 0
-435 -77 -23 -80 0
-435 -77 -53 -98 0
-435 -77 -56 -98 0
-435 -77 116 170 278 125 179 287 0
-435 -38 -74 -86 0
-435 -38 -77 -89 0
-437 107 0
-437 -80 0
-437 -74 42 0
-437 -74 87 0
-437 -74 -20 0
-437 -74 -29 0
-437 -74 -32 0
-437 -74 -35 0
-437 -74 -5 -68 0
-437 -74 -8 -68 0
-437 -74 -23 -77 0
-437 -74 -26 -77 0
-437 -74 -53 -95 0
-437 -74 -56 -95 0
-437 -74 -59 -95 0
-437 -74 122 176 284 131 185 293 0
-437 -77 42 0
-437 -77 90 0
-437 -77 -20 0
-437 -77 -29 0
-437 -77 -32 0
-437 -77 -35 0
-437 -77 -5 -71 0
-437 -77 -8 -71 0
-437 -77 -23 -80 0
-437 -77 -26 -80 0
-437 -77 -53 -98 0
-437 -77 -56 -98 0
-437 -77 -59 -98 0
-437 -77 125 179 287 134 188 296 0
-437 -41 -74 -86 0
-437 -41 -77 -89 0
-439 107 0
-439 -80 0
-439 -74 45 0
-439 -74 87 0
-439 -74 -20 0
-439 -74 -23 0
-439 -74 -32 0
-439 -74 -35 0
-439 -74 -8 -68 0
-439 -74 -11 -68 0
-439 -74 -26 -77 0
-439 -74 -29 -77 0
-439 -74 -53 -95 0
-439 -74 -56 -95 0
-439 -74 -59 -95 0
-439 -74 -62 -95 0
-439 -74 131 185 293 140 194 302 0
-439 -77 45 0
-439 -77 90 0
-439 -77 -20 0
-439 -77 -23 0
-439 -77 -32 0
-439 -77 -35 0
-439 -77 -8 -71 0
-439 -77 -11 -71 0
-439 -77 -26 -80 0
-439 -77 -29 -80 0
-439 -77 -53 -98 0
-439 -77 -56 -98 0
-439 -77 -59 -98 0
-439 -77 -62 -98 0
-439 -77 134 188 296 143 197 305 0
-439 -44 -74 -86 0
-439 -44 -77 -89 0
-441 107 0
-441 -80 0
-441 -74 48 0
-441 -74 87 0
-441 -74 -20 0
-441 -74 -23 0
-441 -74 -26 0
-441 -74 -35 0
-441 -74 -11 -68 0
-441 -74 -14 -68 0
-441 -74 -29 -77 0
-441 -74 -32 -77 0
-441 -74 -56 -95 0
-441 -74 -59 -95 0
-441 -74 -62 -95 0
-441 -74 140 194 302 149 203 311 0
-441 -77 48 0
-441 -77 90 0
-441 -77 -20 0
-441 -77 -23 0
-441 -77 -26 0
-441 -77 -35 0
-441 -77 -11 -71 0
-441 -77 -14 -71 0
-441 -77 -29 -80 0
-441 -77 -32 -80 0
-441 -77 -56 -98 0
-441 -77 -59 -98 0
-441 -77 -62 -98 0
-441 -77 143 197 305 152 206 314 0
-441 -47 -74 -86 0
-441 -47 -77 -89 0
-443 107 0
-443 -80 0
-443 -74 51 0
-443 -74 87 0
-443 -74 -20 0
-443 -74 -23 0
-443 -74 -26 0
-443 -74 -29 0
-443 -74 -14 -68 0
-443 -74 -17 -68 0
-443 -74 -32 -77 0
-443 -74 -35 -77 0
-443 -74 -59 -95 0
-443 -74 -62 -95 0
-443 -74 149 203 311 158 212 320 0
-443 -77 51 0
-443 -77 90 0
-443 -77 -20 0
-443 -77 -23 0
-443 -77 -26 0
-443 -77 -29 0
-443 -77 -14 -71 0
-443 -77 -17 -71 0
-443 -77 -32 -80 0
-443 -77 -35 -80 0
-443 -77 -59 -98 0
-443 -77 -62 -98 0
-443 -77 152 206 314 161 215 323 0
-443 -50 -74 -86 0
-443 -50 -77 -89 0
-445 107 0
-445 -98 0
-445 -92 39 0
-445 -92 87 0
-445 -92 -59 0
-445 -92 -62 0
-445 -92 -2 -68 0
-445 -92 -5 -68 0
-445 -92 -20 -77 0
-445 -92 -23 -77 0
-445 -92 -53 -95 0
-445 -92 -56 -95 0
-445 -92 113 167 275 122 176 284 0
-445 -95 39 0
-445 -95 90 0
-445 -95 -59 0
-445 -95 -62 0
-445 -95 -2 -71 0
-445 -95 -5 -71 0
-445 -95 -20 -80 0
-445 -95 -23 -80 0
-445 -95 -53 -98 0
-445 -95 -56 -98 0
-445 -95 116 170 278 125 179 287 0
-445 -38 -92 -86 0
-445 -38 -95 -89 0
-447 107 0
-447 -98 0
-447 -92 42 0
-447 -92 87 0
-447 -92 -62 0
-447 -92 -5 -68 0
-447 -92 -8 -68 0
-447 -92 -23 -77 0
-447 -92 -26 -77 0
-447 -92 -53 -95 0
-447 -92 -56 -95 0
-447 -92 -59 -95 0
-447 -92 122 176 284 131 185 293 0
-447 -95 42 0
-447 -95 90 0
-447 -95 -62 0
-447 -95 -5 -71 0
-447 -95 -8 -71 0
-447 -95 -23 -80 0
-447 -95 -26 -80 0
-447 -95 -53 -98 0
-447 -95 -56 -98 0
-447 -95 -59 -98 0
-447 -95 125 179 287 134 188 296 0
-447 -41 -92 -86 0
-447 -41 -95 -89 0
-449 107 0
-449 -98 0
-449 -92 45 0
-449 -92 87 0
-449 -92 -8 -68 0
-449 -92 -11 -68 0
-449 -92 -26 -77 0
-449 -92 -29 -77 0
-449 -92 -53 -95 0
-449 -92 -56 -95 0
-449 -92 -59 -95 0
-449 -92 -62 -95 0
-449 -92 131 185 293 140 194 302 0
-449 -95 45 0
-449 -95 90 0
-449 -95 -8 -71 0
-449 -95 -11 -71 0
-449 -95 -26 -80 0
-449 -95 -29 -80 0
-449 -95 -53 -98 0
-449 -95 -56 -98 0
-449 -95 -59 -98 0
-449 -95 -62 -98 0
-449 -95 134 188 296 143 197 305 0
-449 -44 -92 -86 0
-449 -44 -95 -89 0
-451 107 0
-451 -98 0
-451 -92 48 0
-451 -92 87 0
-451 -92 -53 0
-451 -92 -11 -68 0
-451 -92 -14 -68 0
-451 -92 -29 -77 0
-451 -92 -32 -77 0
-451 -92 -56 -95 0
-451 -92 -59 -95 0
-451 -92 -62 -95 0
-451 -92 140 194 302 149 203 311 0
-451 -95 48 0
-451 -95 90 0
-451 -95 -53 0
-451 -95 -11 -71 0
-451 -95 -14 -71 0
-451 -95 -29 -80 0
-451 -95 -32 -80 0
-451 -95 -56 -98 0
-451 -95 -59 -98 0
-451 -95 -62 -98 0
-451 -95 143 197 305 152 206 314 0
-451 -47 -92 -86 0
-451 -47 -95 -89 0
-453 107 0
-453 -98 0
-453 -92 51 0
-453 -92 87 0
-453 -92 -53 0
-453 -92 -56 0
-453 -92 -14 -68 0
-453 -92 -17 -68 0
-453 -92 -32 -77 0
-453 -92 -35 -77 0
-453 -92 -59 -95 0
-453 -92 -62 -95 0
-453 -92 149 203 311 158 212 320 0
-453 -95 51 0
-453 -95 90 0
-453 -95 -53 0
-453 -95 -56 0
-453 -95 -14 -71 0
-453 -95 -17 -71 0
-453 -95 -32 -80 0
-453 -95 -35 -80 0
-453 -95 -59 -98 0
-453 -95 -62 -98 0
-453 -95 152 206 314 161 215 323 0
-453 -50 -92 -86 0
-453 -50 -95 -89 0
-455 107 0
-455 39 0
-455 84 0
-455 -38 -83 0
-455 -2 -65 0
-455 -5 -65 0
-455 -20 -74 0
-455 -23 -74 0
-455 -53 -92 0
-455 -56 -92 0
-457 107 0
-457 42 0
-457 84 0
-457 -41 -83 0
-457 -5 -65 0
-457 -8 -65 0
-457 -23 -74 0
-457 -26 -74 0
-457 -53 -92 0
-457 -56 -92 0
-457 -59 -92 0
-459 107 0
-459 45 0
-459 84 0
-459 -44 -83 0
-459 -8 -65 0
-459 -11 -65 0
-459 -26 -74 0
-459 -29 -74 0
-459 -53 -92 0
-459 -56 -92 0
-459 -59 -92 0
-459 -62 -92 0
-461 107 0
-461 48 0
-461 84 0
-461 -47 -83 0
-461 -11 -65 0
-461 -14 -65 0
-461 -29 -74 0
-461 -32 -74 0
-461 -56 -92 0
-461 -59 -92 0
-461 -62 -92 0
-463 107 0
-463 51 0
-463 84 0
-463 -50 -83 0
-463 -14 -65 0
-463 -17 -65 0
-463 -32 -74 0
-463 -35 -74 0
-463 -59 -92 0
-463 -62 -92 0
-465 110 0
-465 -71 0
-465 -65 54 0
-465 -65 96 0
-465 -65 -11 0
-465 -65 -14 0
-465 -65 -17 0
-465 -65 -2 -68 0
-465 -65 -5 -68 0
-465 -65 -8 -68 0
-465 -65 -20 -77 0
-465 -65 -23 -77 0
-465 -65 -26 -77 0
-465 -65 -38 -86 0
-465 -65 -41 -86 0
-465 -65 -44 -86 0
-465 -65 113 167 221 122 176 230 0
-465 -65 113 167 221 131 185 239 0
-465 -65 122 176 230 131 185 239 0
-465 -68 54 0
-465 -68 99 0
-465 -68 -11 0
-465 -68 -14 0
-465 -68 -17 0
-465 -68 -2 -71 0
-465 -68 -5 -71 0
-465 -68 -8 -71 0
-465 -68 -20 -80 0
-465 -68 -23 -80 0
-465 -68 -26 -80 0
-465 -68 -38 -89 0
-465 -68 -41 -89 0
-465 -68 -44 -89 0
-465 -68 116 170 224 125 179 233 0
-465 -68 116 170 224 134 188 242 0
-465 -68 125 179 233 134 188 242 0
-465 -53 -65 -95 0
-465 -53 -68 -98 0
-467 110 0
-467 -71 0
-467 -65 57 0
-467 -65 96 0
-467 -65 -2 0
-467 -65 -14 0
-467 -65 -17 0
-467 -65 -5 -68 0
-467 -65 -8 -68 0
-467 -65 -11 -68 0
-467 -65 -23 -77 0
-467 -65 -26 -77 0
-467 -65 -29 -77 0
-467 -65 -38 -86 0
-467 -65 -41 -86 0
-467 -65 -44 -86 0
-467 -65 -47 -86 0
-467 -65 122 176 230 131 185 239 0
-467 -65 122 176 230 140 194 248 0
-467 -65 131 185 239 140 194 248 0
-467 -68 57 0
-467 -68 99 0
-467 -68 -2 0
-467 -68 -14 0
-467 -68 -17 0
-467 -68 -5 -71 0
-467 -68 -8 -71 0
-467 -68 -11 -71 0
-467 -68 -23 -80 0
-467 -68 -26 -80 0
-467 -68 -29 -80 0
-467 -68 -38 -89 0
-467 -68 -41 -89 0
-467 -68 -44 -89 0
-467 -68 -47 -89 0
-467 -68 125 179 233 134 188 242 0
-467 -68 125 179 233 143 197 251 0
-467 -68 134 188 242 143 197 251 0
-467 -56 -65 -95 0
-467 -56 -68 -98 0
-469 110 0
-469 -71 0
-469 -65 60 0
-469 -65 96 0
-469 -65 -2 0
-469 -65 -5 0
-469 -65 -17 0
-469 -65 -8 -68 0
-469 -65 -11 -68 0
-469 -65 -14 -68 0
-469 -65 -26 -77 0
-469 -65 -29 -77 0
-469 -65 -32 -77 0
-469 -65 -41 -86 0
-469 -65 -44 -86 0
-469 -65 -47 -86 0
-469 -65 -50 -86 0
-469 -65 131 185 239 140 194 248 0
-469 -65 131 185 239 149 203 257 0
-469 -65 140 194 248 149 203 257 0
-469 -68 60 0
-469 -68 99 0
-469 -68 -2 0
-469 -68 -5 0
-469 -68 -17 0
-469 -68 -8 -71 0
-469 -68 -11 -71 0
-469 -68 -14 -71 0
-469 -68 -26 -80 0
-469 -68 -29 -80 0
-469 -68 -32 -80 0
-469 -68 -41 -89 0
-469 -68 -44 -89 0
-469 -68 -47 -89 0
-469 -68 -50 -89 0
-469 -68 134 188 242 143 197 251 0
-469 -68 134 188 242 152 206 260 0
-469 -68 143 197 251 152 206 260 0
-469 -59 -65 -95 0
-469 -59 -68 -98 0
-471 110 0
-471 -71 0
-471 -65 63 0
-471 -65 96 0
-471 -65 -2 0
-471 -65 -5 0
-471 -65 -8 0
-471 -65 -11 -68 0
-471 -65 -14 -68 0
-471 -65 -17 -68 0
-471 -65 -29 -77 0
-471 -65 -32 -77 0
-471 -65 -35 -77 0
-471 -65 -44 -86 0
-471 -65 -47 -86 0
-471 -65 -50 -86 0
-471 -65 140 194 248 149 203 257 0
-471 -65 140 194 248 158 212 266 0
-471 -65 149 203 257 158 212 266 0
-471 -68 63 0
-471 -68 99 0
-471 -68 -2 0
-471 -68 -5 0
-471 -68 -8 0
-471 -68 -11 -71 0
-471 -68 -14 -71 0
-471 -68 -17 -71 0
-471 -68 -29 -80 0
-471 -68 -32 -80 0
-471 -68 -35 -80 0
-471 -68 -44 -89 0
-471 -68 -47 -89 0
-471 -68 -50 -89 0
-471 -68 143 197 251 152 206 260 0
-471 -68 143 197 251 161 215 269 0
-471 -68 152 206 260 161 215 269 0
-471 -62 -65 -95 0
-471 -62 -68 -98 0
-473 110 0
-473 -80 0
-473 -74 54 0
-473 -74 96 0
-473 -74 -29 0
-473 -74 -32 0
-473 -74 -35 0
-473 -74 -2 -68 0
-473 -74 -5 -68 0
-473 -74 -8 -68 0
-473 -74 -20 -77 0
-473 -74 -23 -77 0
-473 -74 -26 -77 0
-473 -74 -38 -86 0
-473 -74 -41 -86 0
-473 -74 -44 -86 0
-473 -74 113 167 221 122 176 230 0
-473 -74 113 167 221 131 185 239 0
-473 -74 122 176 230 131 185 239 0
-473 -77 54 0
-473 -77 99 0
-473 -77 -29 0
-473 -77 -32 0
-473 -77 -35 0
-473 -77 -2 -71 0
-473 -77 -5 -71 0
-473 -77 -8 -71 0
-473 -77 -20 -80 0
-473 -77 -23 -80 0
-473 -77 -26 -80 0
-473 -77 -38 -89 0
-473 -77 -41 -89 0
-473 -77 -44 -89 0
-473 -77 116 170 224 125 179 233 0
-473 -77 116 170 224 134 188 242 0
-473 -77 125 179 233 134 188 242 0
-473 -53 -74 -95 0
-473 -53 -77 -98 0
-475 110 0
-475 -80 0
-475 -74 57 0
-475 -74 96 0
-475 -74 -20 0
-475 -74 -32 0
-475 -74 -35 0
-475 -74 -5 -68 0
-475 -74 -8 -68 0
-475 -74 -11 -68 0
-475 -74 -23 -77 0
-475 -74 -26 -77 0
-475 -74 -29 -77 0
-475 -74 -38 -86 0
-475 -74 -41 -86 0
-475 -74 -44 -86 0
-475 -74 -47 -86 0
-475 -74 122 176 230 131 185 239 0
-475 -74 122 176 230 140 194 248 0
-475 -74 131 185 239 140 194 248 0
-475 -77 57 0
-475 -77 99 0
-475 -77 -20 0
-475 -77 -32 0
-475 -77 -35 0
-475 -77 -5 -71 0
-475 -77 -8 -71 0
-475 -77 -11 -71 0
-475 -77 -23 -80 0
-475 -77 -26 -80 0
-475 -77 -29 -80 0
-475 -77 -38 -89 0
-475 -77 -41 -89 0
-475 -77 -44 -89 0
-475 -77 -47 -89 0
-475 -77 125 179 233 134 188 242 0
-475 -77 125 179 233 143 197 251 0
-475 -77 134 188 242 143 197 251 0
-475 -56 -74 -95 0
-475 -56 -77 -98 0
-477 110 0
-477 -80 0
-477 -74 60 0
-477 -74 96 0
-477 -74 -20 0
-477 -74 -23 0
-477 -74 -35 0
-477 -74 -8 -68 0
-477 -74 -11 -68 0
-477 -74 -14 -68 0
-477 -74 -26 -77 0
-477 -74 -29 -77 0
-477 -74 -32 -77 0
-477 -74 -41 -86 0
-477 -74 -44 -86 0
-477 -74 -47 -86 0
-477 -74 -50 -86 0
-477 -74 131 185 239 140 194 248 0
-477 -74 131 185 239 149 203 257 0
-477 -74 140 194 248 149 203 257 0
-477 -77 60 0
-477 -77 99 0
-477 -77 -20 0
-477 -77 -23 0
-477 -77 -35 0
-477 -77 -8 -71 0
-477 -77 -11 -71 0
-477 -77 -14 -71 0
-477 -77 -26 -80 0
-477 -77 -29 -80 0
-477 -77 -32 -80 0
-477 -77 -41 -89 0
-477 -77 -44 -89 0
-477 -77 -47 -89 0
-477 -77 -50 -89 0
-477 -77 134 188 242 143 197 251 0
-477 -77 134 188 242 152 206 260 0
-477 -77 143 197 251 152 206 260 0
-477 -59 -74 -95 0
-477 -59 -77 -98 0
-479 110 0
-479 -80 0
-479 -74 63 0
-479 -74 96 0
-479 -74 -20 0
-479 -74 -23 0
-479 -74 -26 0
-479 -74 -11 -68 0
-479 -74 -14 -68 0
-479 -74 -17 -68 0
-479 -74 -29 -77 0
-479 -74 -32 -77 0
-479 -74 -35 -77 0
-479 -74 -44 -86 0
-479 -74 -47 -86 0
-479 -74 -50 -86 0
-479 -74 140 194 248 149 203 257 0
-479 -74 140 194 248 158 212 266 0
-479 -74 149 203 257 158 212 266 0
-479 -77 63 0
-479 -77 99 0
-479 -77 -20 0
-479 -77 -23 0
-479 -77 -26 0
-479 -77 -11 -71 0
-479 -77 -14 -71 0
-479 -77 -17 -71 0
-479 -77 -29 -80 0
-479 -77 -32 -80 0
-479 -77 -35 -80 0
-479 -77 -44 -89 0
-479 -77 -47 -89 0
-479 -77 -50 -89 0
-479 -77 143 197 251 152 206 260 0
-479 -77 143 197 251 161 215 269 0
-479 -77 152 206 260 161 215 269 0
-479 -62 -74 -95 0
-479 -62 -77 -98 0
-481 110 0
-481 -89 0
-481 -83 54 0
-481 -83 96 0
-481 -83 -47 0
-481 -83 -50 0
-481 -83 -2 -68 0
-481 -83 -5 -68 0
-481 -83 -8 -68 0
-481 -83 -20 -77 0
-481 -83 -23 -77 0
-481 -83 -26 -77 0
-481 -83 -38 -86 0
-481 -83 -41 -86 0
-481 -83 -44 -86 0
-481 -83 113 167 221 122 176 230 0
-481 -83 113 167 221 131 185 239 0
-481 -83 122 176 230 131 185 239 0
-481 -86 54 0
-481 -86 99 0
-481 -86 -47 0
-481 -86 -50 0
-481 -86 -2 -71 0
-481 -86 -5 -71 0
-481 -86 -8 -71 0
-481 -86 -20 -80 0
-481 -86 -23 -80 0
-481 -86 -26 -80 0
-481 -86 -38 -89 0
-481 -86 -41 -89 0
-481 -86 -44 -89 0
-481 -86 116 170 224 125 179 233 0
-481 -86 116 170 224 134 188 242 0
-481 -86 125 179 233 134 188 242 0
-481 -53 -83 -95 0
-481 -53 -86 -98 0
-483 110 0
-483 -89 0
-483 -83 57 0
-483 -83 96 0
-483 -83 -50 0
-483 -83 -5 -68 0
-483 -83 -8 -68 0
-483 -83 -11 -68 0
-483 -83 -23 -77 0
-483 -83 -26 -77 0
-483 -83 -29 -77 0
-483 -83 -38 -86 0
-483 -83 -41 -86 0
-483 -83 -44 -86 0
-483 -83 -47 -86 0
-483 -83 122 176 230 131 185 239 0
-483 -83 122 176 230 140 194 248 0
-483 -83 131 185 239 140 194 248 0
-483 -86 57 0
-483 -86 99 0
-483 -86 -50 0
-483 -86 -5 -71 0
-483 -86 -8 -71 0
-483 -86 -11 -71 0
-483 -86 -23 -80 0
-483 -86 -26 -80 0
-483 -86 -29 -80 0
-483 -86 -38 -89 0
-483 -86 -41 -89 0
-483 -86 -44 -89 0
-483 -86 -47 -89 0
-483 -86 125 179 233 134 188 242 0
-483 -86 125 179 233 143 197 251 0
-483 -86 134 188 242 143 197 251 0
-483 -56 -83 -95 0
-483 -56 -86 -98 0
-485 110 0
-485 -89 0
-485 -83 60 0
-485 -83 96 0
-485 -83 -38 0
-485 -83 -8 -68 0
-485 -83 -11 -68 0
-485 -83 -14 -68 0
-485 -83 -26 -77 0
-485 -83 -29 -77 0
-485 -83 -32 -77 0
-485 -83 -41 -86 0
-485 -83 -44 -86 0
-485 -83 -47 -86 0
-485 -83 -50 -86 0
-485 -83 131 185 239 140 194 248 0
-485 -83 131 185 239 149 203 257 0
-485 -83 140 194 248 149 203 257 0
-485 -86 60 0
-485 -86 99 0
-485 -86 -38 0
-485 -86 -8 -71 0
-485 -86 -11 -71 0
-485 -86 -14 -71 0
-485 -86 -26 -80 0
-485 -86 -29 -80 0
-485 -86 -32 -80 0
-485 -86 -41 -89 0
-485 -86 -44 -89 0
-485 -86 -47 -89 0
-485 -86 -50 -89 0
-485 -86 134 188 242 143 197 251 0
-485 -86 134 188 242 152 206 260 0
-485 -86 143 197 251 152 206 260 0
-485 -59 -83 -95 0
-485 -59 -86 -98 0
-487 110 0
-487 -89 0
-487 -83 63 0
-487 -83 96 0
-487 -83 -38 0
-487 -83 -41 0
-487 -83 -11 -68 0
-487 -83 -14 -68 0
-487 -83 -17 -68 0
-487 -83 -29 -77 0
-487 -83 -32 -77 0
-487 -83 -35 -77 0
-487 -83 -44 -86 0
-487 -83 -47 -86 0
-487 -83 -50 -86 0
-487 -83 140 194 248 149 203 257 0
-487 -83 140 194 248 158 212 266 0
-487 -83 149 203 257 158 212 266 0
-487 -86 63 0
-487 -86 99 0
-487 -86 -38 0
-487 -86 -41 0
-487 -86 -11 -71 0
-487 -86 -14 -71 0
-487 -86 -17 -71 0
-487 -86 -29 -80 0
-487 -86 -32 -80 0
-487 -86 -35 -80 0
-487 -86 -44 -89 0
-487 -86 -47 -89 0
-487 -86 -50 -89 0
-487 -86 143 197 251 152 206 260 0
-487 -86 143 197 251 161 215 269 0
-487 -86 152 206 260 161 215 269 0
-487 -62 -83 -95 0
-487 -62 -86 -98 0
-489 110 0
-489 54 0
-489 93 0
-489 -53 -92 0
-489 -2 -65 0
-489 -5 -65 0
-489 -8 -65 0
-489 -20 -74 0
-489 -23 -74 0
-489 -26 -74 0
-489 -38 -83 0
-489 -41 -83 0
-489 -44 -83 0
-491 110 0
-491 57 0
-491 93 0
-491 -56 -92 0
-491 -5 -65 0
-491 -8 -65 0
-491 -11 -65 0
-491 -23 -74 0
-491 -26 -74 0
-491 -29 -74 0
-491 -38 -83 0
-491 -41 -83 0
-491 -44 -83 0
-491 -47 -83 0
-493 110 0
-493 60 0
-493 93 0
-493 -59 -92 0
-493 -8 -65 0
-493 -11 -65 0
-493 -14 -65 0
-493 -26 -74 0
-493 -29 -74 0
-493 -32 -74 0
-493 -41 -83 0
-493 -44 -83 0
-493 -47 -83 0
-493 -50 -83 0
-495 110 0
-495 63 0
-495 93 0
-495 -62 -92 0
-495 -11 -65 0
-495 -14 -65 0
-495 -17 -65 0
-495 -29 -74 0
-495 -32 -74 0
-495 -35 -74 0
-495 -44 -83 0
-495 -47 -83 0
-495 -50 -83 0
-376 -1 2 0
-376 -4 5 0
-376 -7 8 0
-376 -10 11 0
-376 -13 14 0
-376 -16 17 0
-376 -64 65 0
-376 -67 68 0
-376 -70 71 0
-378 -1 2 0
-378 -4 5 0
-378 -7 8 0
-378 -10 11 0
-378 -13 14 0
-378 -16 17 0
-378 -64 65 0
-378 -67 68 0
-378 -70 71 0
-380 -1 2 0
-380 -4 5 0
-380 -7 8 0
-380 -10 11 0
-380 -13 14 0
-380 -16 17 0
-380 -64 65 0
-380 -67 68 0
-380 -70 71 0
-382 -1 2 0
-382 -4 5 0
-382 -7 8 0
-382 -10 11 0
-382 -13 14 0
-382 -16 17 0
-382 -64 65 0
-382 -67 68 0
-382 -70 71 0
-384 -1 2 0
-384 -4 5 0
-384 -7 8 0
-384 -10 11 0
-384 -13 14 0
-384 -16 17 0
-384 -64 65 0
-384 -67 68 0
-384 -70 71 0
-386 -1 2 0
-386 -4 5 0
-386 -7 8 0
-386 -10 11 0
-386 -13 14 0
-386 -16 17 0
-386 -64 65 0
-386 -67 68 0
-386 -70 71 0
-388 -1 2 0
-388 -4 5 0
-388 -7 8 0
-388 -10 11 0
-388 -13 14 0
-388 -16 17 0
-388 -64 65 0
-388 -67 68 0
-388 -70 71 0
-390 -1 2 0
-390 -4 5 0
-390 -7 8 0
-390 -10 11 0
-390 -13 14 0
-390 -16 17 0
-390 -64 65 0
-390 -67 68 0
-390 -70 71 0
-392 -1 2 0
-392 -4 5 0
-392 -7 8 0
-392 -10 11 0
-392 -13 14 0
-392 -16 17 0
-392 -64 65 0
-392 -67 68 0
-392 -70 71 0
-394 -1 2 0
-394 -4 5 0
-394 -7 8 0
-394 -10 11 0
-394 -13 14 0
-394 -16 17 0
-394 -64 65 0
-394 -67 68 0
-394 -70 71 0
-396 -1 2 0
-396 -4 5 0
-396 -7 8 0
-396 -10 11 0
-396 -13 14 0
-396 -16 17 0
-396 -64 65 0
-396 -67 68 0
-396 -70 71 0
-398 -1 2 0
-398 -4 5 0
-398 -7 8 0
-398 -10 11 0
-398 -13 14 0
-398 -16 17 0
-398 -64 65 0
-398 -67 68 0
-398 -70 71 0
-400 -1 2 0
-400 -4 5 0
-400 -7 8 0
-400 -10 11 0
-400 -13 14 0
-400 -16 17 0
-400 -64 65 0
-400 -67 68 0
-400 -70 71 0
-402 -1 2 0
-402 -4 5 0
-402 -7 8 0
-402 -10 11 0
-402 -13 14 0
-402 -16 17 0
-402 -64 65 0
-402 -67 68 0
-402 -70 71 0
-404 -1 2 0
-404 -4 5 0
-404 -7 8 0
-404 -10 11 0
-404 -13 14 0
-404 -16 17 0
-404 -64 65 0
-404 -67 68 0
-404 -70 71 0
-406 -1 2 0
-406 -4 5 0
-406 -7 8 0
-406 -10 11 0
-406 -13 14 0
-406 -16 17 0
-406 -64 65 0
-406 -67 68 0
-406 -70 71 0
-408 -1 2 0
-408 -4 5 0
-408 -7 8 0
-408 -10 11 0
-408 -13 14 0
-408 -16 17 0
-408 -64 65 0
-408 -67 68 0
-408 -70 71 0
-410 -1 2 0
-410 -4 5 0
-410 -7 8 0
-410 -10 11 0
-410 -13 14 0
-410 -16 17 0
-410 -64 65 0
-410 -67 68 0
-410 -70 71 0
-412 -1 2 0
-412 -4 5 0
-412 -7 8 0
-412 -10 11 0
-412 -13 14 0
-412 -16 17 0
-412 -64 65 0
-412 -67 68 0
-412 -70 71 0
-414 -1 2 0
-414 -4 5 0
-414 -7 8 0
-414 -10 11 0
-414 -13 14 0
-414 -16 17 0
-414 -64 65 0
-414 -67 68 0
-414 -70 71 0
-416 -1 2 0
-416 -4 5 0
-416 -7 8 0
-416 -10 11 0
-416 -13 14 0
-416 -16 17 0
-416 -64 65 0
-416 -67 68 0
-416 -70 71 0
-418 -1 2 0
-418 -4 5 0
-418 -7 8 0
-418 -10 11 0
-418 -13 14 0
-418 -16 17 0
-418 -64 65 0
-418 -67 68 0
-418 -70 71 0
-420 -1 2 0
-420 -4 5 0
-420 -7 8 0
-420 -10 11 0
-420 -13 14 0
-420 -16 17 0
-420 -64 65 0
-420 -67 68 0
-420 -70 71 0
-422 -1 2 0
-422 -4 5 0
-422 -7 8 0
-422 -10 11 0
-422 -13 14 0
-422 -16 17 0
-422 -64 65 0
-422 -67 68 0
-422 -70 71 0
-424 -1 2 0
-424 -4 5 0
-424 -7 8 0
-424 -10 11 0
-424 -13 14 0
-424 -16 17 0
-424 -64 65 0
-424 -67 68 0
-424 -70 71 0
-426 -1 2 0
-426 -4 5 0
-426 -7 8 0
-426 -10 11 0
-426 -13 14 0
-426 -16 17 0
-426 -64 65 0
-426 -67 68 0
-426 -70 71 0
-428 -1 2 0
-428 -4 5 0
-428 -7 8 0
-428 -10 11 0
-428 -13 14 0
-428 -16 17 0
-428 -64 65 0
-428 -67 68 0
-428 -70 71 0
-430 -1 2 0
-430 -4 5 0
-430 -7 8 0
-430 -10 11 0
-430 -13 14 0
-430 -16 17 0
-430 -64 65 0
-430 -67 68 0
-430 -70 71 0
-432 -1 2 0
-432 -4 5 0
-432 -7 8 0
-432 -10 11 0
-432 -13 14 0
-432 -16 17 0
-432 -64 65 0
-432 -67 68 0
-432 -70 71 0
-434 -1 2 0
-434 -4 5 0
-434 -7 8 0
-434 -10 11 0
-434 -13 14 0
-434 -16 17 0
-434 -64 65 0
-434 -67 68 0
-434 -70 71 0
-436 -1 2 0
-436 -4 5 0
-436 -7 8 0
-436 -10 11 0
-436 -13 14 0
-436 -16 17 0
-436 -64 65 0
-436 -67 68 0
-436 -70 71 0
-438 -1 2 0
-438 -4 5 0
-438 -7 8 0
-438 -10 11 0
-438 -13 14 0
-438 -16 17 0
-438 -64 65 0
-438 -67 68 0
-438 -70 71 0
-440 -1 2 0
-440 -4 5 0
-440 -7 8 0
-440 -10 11 0
-440 -13 14 0
-440 -16 17 0
-440 -64 65 0
-440 -67 68 0
-440 -70 71 0
-442 -1 2 0
-442 -4 5 0
-442 -7 8 0
-442 -10 11 0
-442 -13 14 0
-442 -16 17 0
-442 -64 65 0
-442 -67 68 0
-442 -70 71 0
-444 -1 2 0
-444 -4 5 0
-444 -7 8 0
-444 -10 11 0
-444 -13 14 0
-444 -16 17 0
-444 -64 65 0
-444 -67 68 0
-444 -70 71 0
-446 -1 2 0
-446 -4 5 0
-446 -7 8 0
-446 -10 11 0
-446 -13 14 0
-446 -16 17 0
-446 -64 65 0
-446 -67 68 0
-446 -70 71 0
-448 -1 2 0
-448 -4 5 0
-448 -7 8 0
-448 -10 11 0
-448 -13 14 0
-448 -16 17 0
-448 -64 65 0
-448 -67 68 0
-448 -70 71 0
-450 -1 2 0
-450 -4 5 0
-450 -7 8 0
-450 -10 11 0
-450 -13 14 0
-450 -16 17 0
-450 -64 65 0
-450 -67 68 0
-450 -70 71 0
-452 -1 2 0
-452 -4 5 0
-452 -7 8 0
-452 -10 11 0
-452 -13 14 0
-452 -16 17 0
-452 -64 65 0
-452 -67 68 0
-452 -70 71 0
-454 -1 2 0
-454 -4 5 0
-454 -7 8 0
-454 -10 11 0
-454 -13 14 0
-454 -16 17 0
-454 -64 65 0
-454 -67 68 0
-454 -70 71 0
-456 -1 2 0
-456 -4 5 0
-456 -7 8 0
-456 -10 11 0
-456 -13 14 0
-456 -16 17 0
-456 -64 65 0
-456 -67 68 0
-456 -70 71 0
-458 -1 2 0
-458 -4 5 0
-458 -7 8 0
-458 -10 11 0
-458 -13 14 0
-458 -16 17 0
-458 -64 65 0
-458 -67 68 0
-458 -70 71 0
-460 -1 2 0
-460 -4 5 0
-460 -7 8 0
-460 -10 11 0
-460 -13 14 0
-460 -16 17 0
-460 -64 65 0
-460 -67 68 0
-460 -70 71 0
-462 -1 2 0
-462 -4 5 0
-462 -7 8 0
-462 -10 11 0
-462 -13 14 0
-462 -16 17 0
-462 -64 65 0
-462 -67 68 0
-462 -70 71 0
-464 -1 2 0
-464 -4 5 0
-464 -7 8 0
-464 -10 11 0
-464 -13 14 0
-464 -16 17 0
-464 -64 65 0
-464 -67 68 0
-464 -70 71 0
-466 -1 2 0
-466 -4 5 0
-466 -7 8 0
-466 -10 11 0
-466 -13 14 0
-466 -16 17 0
-466 -64 65 0
-466 -67 68 0
-466 -70 71 0
-468 -1 2 0
-468 -4 5 0
-468 -7 8 0
-468 -10 11 0
-468 -13 14 0
-468 -16 17 0
-468 -64 65 0
-468 -67 68 0
-468 -70 71 0
-470 -1 2 0
-470 -4 5 0
-470 -7 8 0
-470 -10 11 0
-470 -13 14 0
-470 -16 17 0
-470 -64 65 0
-470 -67 68 0
-470 -70 71 0
-472 -1 2 0
-472 -4 5 0
-472 -7 8 0
-472 -10 11 0
-472 -13 14 0
-472 -16 17 0
-472 -64 65 0
-472 -67 68 0
-472 -70 71 0
-474 -1 2 0
-474 -4 5 0
-474 -7 8 0
-474 -10 11 0
-474 -13 14 0
-474 -16 17 0
-474 -64 65 0
-474 -67 68 0
-474 -70 71 0
-476 -1 2 0
-476 -4 5 0
-476 -7 8 0
-476 -10 11 0
-476 -13 14 0
-476 -16 17 0
-476 -64 65 0
-476 -67 68 0
-476 -70 71 0
-478 -1 2 0
-478 -4 5 0
-478 -7 8 0
-478 -10 11 0
-478 -13 14 0
-478 -16 17 0
-478 -64 65 0
-478 -67 68 0
-478 -70 71 0
-480 -1 2 0
-480 -4 5 0
-480 -7 8 0
-480 -10 11 0
-480 -13 14 0
-480 -16 17 0
-480 -64 65 0
-480 -67 68 0
-480 -70 71 0
-482 -1 2 0
-482 -4 5 0
-482 -7 8 0
-482 -10 11 0
-482 -13 14 0
-482 -16 17 0
-482 -64 65 0
-482 -67 68 0
-482 -70 71 0
-484 -1 2 0
-484 -4 5 0
-484 -7 8 0
-484 -10 11 0
-484 -13 14 0
-484 -16 17 0
-484 -64 65 0
-484 -67 68 0
-484 -70 71 0
-486 -1 2 0
-486 -4 5 0
-486 -7 8 0
-486 -10 11 0
-486 -13 14 0
-486 -16 17 0
-486 -64 65 0
-486 -67 68 0
-486 -70 71 0
-488 -1 2 0
-488 -4 5 0
-488 -7 8 0
-488 -10 11 0
-488 -13 14 0
-488 -16 17 0
-488 -64 65 0
-488 -67 68 0
-488 -70 71 0
-490 -1 2 0
-490 -4 5 0
-490 -7 8 0
-490 -10 11 0
-490 -13 14 0
-490 -16 17 0
-490 -64 65 0
-490 -67 68 0
-490 -70 71 0
-492 -1 2 0
-492 -4 5 0
-492 -7 8 0
-492 -10 11 0
-492 -13 14 0
-492 -16 17 0
-492 -64 65 0
-492 -67 68 0
-492 -70 71 0
-494 -1 2 0
-494 -4 5 0
-494 -7 8 0
-494 -10 11 0
-494 -13 14 0
-494 -16 17 0
-494 -64 65 0
-494 -67 68 0
-494 -70 71 0
-328 -19 20 0
-328 -22 23 0
-328 -25 26 0
-328 -28 29 0
-328 -31 32 0
-328 -34 35 0
-328 -73 74 0
-328 -76 77 0
-328 -79 80 0
-330 -19 20 0
-330 -22 23 0
-330 -25 26 0
-330 -28 29 0
-330 -31 32 0
-330 -34 35 0
-330 -73 74 0
-330 -76 77 0
-330 -79 80 0
-332 -19 20 0
-332 -22 23 0
-332 -25 26 0
-332 -28 29 0
-332 -31 32 0
-332 -34 35 0
-332 -73 74 0
-332 -76 77 0
-332 -79 80 0
-334 -19 20 0
-334 -22 23 0
-334 -25 26 0
-334 -28 29 0
-334 -31 32 0
-334 -34 35 0
-334 -73 74 0
-334 -76 77 0
-334 -79 80 0
-336 -19 20 0
-336 -22 23 0
-336 -25 26 0
-336 -28 29 0
-336 -31 32 0
-336 -34 35 0
-336 -73 74 0
-336 -76 77 0
-336 -79 80 0
-338 -19 20 0
-338 -22 23 0
-338 -25 26 0
-338 -28 29 0
-338 -31 32 0
-338 -34 35 0
-338 -73 74 0
-338 -76 77 0
-338 -79 80 0
-340 -19 20 0
-340 -22 23 0
-340 -25 26 0
-340 -28 29 0
-340 -31 32 0
-340 -34 35 0
-340 -73 74 0
-340 -76 77 0
-340 -79 80 0
-342 -19 20 0
-342 -22 23 0
-342 -25 26 0
-342 -28 29 0
-342 -31 32 0
-342 -34 35 0
-342 -73 74 0
-342 -76 77 0
-342 -79 80 0
-344 -19 20 0
-344 -22 23 0
-344 -25 26 0
-344 -28 29 0
-344 -31 32 0
-344 -34 35 0
-344 -73 74 0
-344 -76 77 0
-344 -79 80 0
-346 -19 20 0
-346 -22 23 0
-346 -25 26 0
-346 -28 29 0
-346 -31 32 0
-346 -34 35 0
-346 -73 74 0
-346 -76 77 0
-346 -79 80 0
-348 -19 20 0
-348 -22 23 0
-348 -25 26 0
-348 -28 29 0
-348 -31 32 0
-348 -34 35 0
-348 -73 74 0
-348 -76 77 0
-348 -79 80 0
-350 -19 20 0
-350 -22 23 0
-350 -25 26 0
-350 -28 29 0
-350 -31 32 0
-350 -34 35 0
-350 -73 74 0
-350 -76 77 0
-350 -79 80 0
-352 -19 20 0
-352 -22 23 0
-352 -25 26 0
-352 -28 29 0
-352 -31 32 0
-352 -34 35 0
-352 -73 74 0
-352 -76 77 0
-352 -79 80 0
-354 -19 20 0
-354 -22 23 0
-354 -25 26 0
-354 -28 29 0
-354 -31 32 0
-354 -34 35 0
-354 -73 74 0
-354 -76 77 0
-354 -79 80 0
-356 -19 20 0
-356 -22 23 0
-356 -25 26 0
-356 -28 29 0
-356 -31 32 0
-356 -34 35 0
-356 -73 74 0
-356 -76 77 0
-356 -79 80 0
-358 -19 20 0
-358 -22 23 0
-358 -25 26 0
-358 -28 29 0
-358 -31 32 0
-358 -34 35 0
-358 -73 74 0
-358 -76 77 0
-358 -79 80 0
-360 -19 20 0
-360 -22 23 0
-360 -25 26 0
-360 -28 29 0
-360 -31 32 0
-360 -34 35 0
-360 -73 74 0
-360 -76 77 0
-360 -79 80 0
-362 -19 20 0
-362 -22 23 0
-362 -25 26 0
-362 -28 29 0
-362 -31 32 0
-362 -34 35 0
-362 -73 74 0
-362 -76 77 0
-362 -79 80 0
-364 -19 20 0
-364 -22 23 0
-364 -25 26 0
-364 -28 29 0
-364 -31 32 0
-364 -34 35 0
-364 -73 74 0
-364 -76 77 0
-364 -79 80 0
-366 -19 20 0
-366 -22 23 0
-366 -25 26 0
-366 -28 29 0
-366 -31 32 0
-366 -34 35 0
-366 -73 74 0
-366 -76 77 0
-366 -79 80 0
-368 -19 20 0
-368 -22 23 0
-368 -25 26 0
-368 -28 29 0
-368 -31 32 0
-368 -34 35 0
-368 -73 74 0
-368 -76 77 0
-368 -79 80 0
-370 -19 20 0
-370 -22 23 0
-370 -25 26 0
-370 -28 29 0
-370 -31 32 0
-370 -34 35 0
-370 -73 74 0
-370 -76 77 0
-370 -79 80 0
-372 -19 20 0
-372 -22 23 0
-372 -25 26 0
-372 -28 29 0
-372 -31 32 0
-372 -34 35 0
-372 -73 74 0
-372 -76 77 0
-372 -79 80 0
-374 -19 20 0
-374 -22 23 0
-374 -25 26 0
-374 -28 29 0
-374 -31 32 0
-374 -34 35 0
-374 -73 74 0
-374 -76 77 0
-374 -79 80 0
-424 -19 20 0
-424 -22 23 0
-424 -25 26 0
-424 -28 29 0
-424 -31 32 0
-424 -34 35 0
-424 -73 74 0
-424 -76 77 0
-424 -79 80 0
-426 -19 20 0
-426 -22 23 0
-426 -25 26 0
-426 -28 29 0
-426 -31 32 0
-426 -34 35 0
-426 -73 74 0
-426 -76 77 0
-426 -79 80 0
-428 -19 20 0
-428 -22 23 0
-428 -25 26 0
-428 -28 29 0
-428 -31 32 0
-428 -34 35 0
-428 -73 74 0
-428 -76 77 0
-428 -79 80 0
-430 -19 20 0
-430 -22 23 0
-430 -25 26 0
-430 -28 29 0
-430 -31 32 0
-430 -34 35 0
-430 -73 74 0
-430 -76 77 0
-430 -79 80 0
-432 -19 20 0
-432 -22 23 0
-432 -25 26 0
-432 -28 29 0
-432 -31 32 0
-432 -34 35 0
-432 -73 74 0
-432 -76 77 0
-432 -79 80 0
-434 -19 20 0
-434 -22 23 0
-434 -25 26 0
-434 -28 29 0
-434 -31 32 0
-434 -34 35 0
-434 -73 74 0
-434 -76 77 0
-434 -79 80 0
-436 -19 20 0
-436 -22 23 0
-436 -25 26 0
-436 -28 29 0
-436 -31 32 0
-436 -34 35 0
-436 -73 74 0
-436 -76 77 0
-436 -79 80 0
-438 -19 20 0
-438 -22 23 0
-438 -25 26 0
-438 -28 29 0
-438 -31 32 0
-438 -34 35 0
-438 -73 74 0
-438 -76 77 0
-438 -79 80 0
-440 -19 20 0
-440 -22 23 0
-440 -25 26 0
-440 -28 29 0
-440 -31 32 0
-440 -34 35 0
-440 -73 74 0
-440 -76 77 0
-440 -79 80 0
-442 -19 20 0
-442 -22 23 0
-442 -25 26 0
-442 -28 29 0
-442 -31 32 0
-442 -34 35 0
-442 -73 74 0
-442 -76 77 0
-442 -79 80 0
-444 -19 20 0
-444 -22 23 0
-444 -25 26 0
-444 -28 29 0
-444 -31 32 0
-444 -34 35 0
-444 -73 74 0
-444 -76 77 0
-444 -79 80 0
-446 -19 20 0
-446 -22 23 0
-446 -25 26 0
-446 -28 29 0
-446 -31 32 0
-446 -34 35 0
-446 -73 74 0
-446 -76 77 0
-446 -79 80 0
-448 -19 20 0
-448 -22 23 0
-448 -25 26 0
-448 -28 29 0
-448 -31 32 0
-448 -34 35 0
-448 -73 74 0
-448 -76 77 0
-448 -79 80 0
-450 -19 20 0
-450 -22 23 0
-450 -25 26 0
-450 -28 29 0
-450 -31 32 0
-450 -34 35 0
-450 -73 74 0
-450 -76 77 0
-450 -79 80 0
-452 -19 20 0
-452 -22 23 0
-452 -25 26 0
-452 -28 29 0
-452 -31 32 0
-452 -34 35 0
-452 -73 74 0
-452 -76 77 0
-452 -79 80 0
-454 -19 20 0
-454 -22 23 0
-454 -25 26 0
-454 -28 29 0
-454 -31 32 0
-454 -34 35 0
-454 -73 74 0
-454 -76 77 0
-454 -79 80 0
-456 -19 20 0
-456 -22 23 0
-456 -25 26 0
-456 -28 29 0
-456 -31 32 0
-456 -34 35 0
-456 -73 74 0
-456 -76 77 0
-456 -79 80 0
-458 -19 20 0
-458 -22 23 0
-458 -25 26 0
-458 -28 29 0
-458 -31 32 0
-458 -34 35 0
-458 -73 74 0
-458 -76 77 0
-458 -79 80 0
-460 -19 20 0
-460 -22 23 0
-460 -25 26 0
-460 -28 29 0
-460 -31 32 0
-460 -34 35 0
-460 -73 74 0
-460 -76 77 0
-460 -79 80 0
-462 -19 20 0
-462 -22 23 0
-462 -25 26 0
-462 -28 29 0
-462 -31 32 0
-462 -34 35 0
-462 -73 74 0
-462 -76 77 0
-462 -79 80 0
-464 -19 20 0
-464 -22 23 0
-464 -25 26 0
-464 -28 29 0
-464 -31 32 0
-464 -34 35 0
-464 -73 74 0
-464 -76 77 0
-464 -79 80 0
-466 -19 20 0
-466 -22 23 0
-466 -25 26 0
-466 -28 29 0
-466 -31 32 0
-466 -34 35 0
-466 -73 74 0
-466 -76 77 0
-466 -79 80 0
-468 -19 20 0
-468 -22 23 0
-468 -25 26 0
-468 -28 29 0
-468 -31 32 0
-468 -34 35 0
-468 -73 74 0
-468 -76 77 0
-468 -79 80 0
-470 -19 20 0
-470 -22 23 0
-470 -25 26 0
-470 -28 29 0
-470 -31 32 0
-470 -34 35 0
-470 -73 74 0
-470 -76 77 0
-470 -79 80 0
-472 -19 20 0
-472 -22 23 0
-472 -25 26 0
-472 -28 29 0
-472 -31 32 0
-472 -34 35 0
-472 -73 74 0
-472 -76 77 0
-472 -79 80 0
-474 -19 20 0
-474 -22 23 0
-474 -25 26 0
-474 -28 29 0
-474 -31 32 0
-474 -34 35 0
-474 -73 74 0
-474 -76 77 0
-474 -79 80 0
-476 -19 20 0
-476 -22 23 0
-476 -25 26 0
-476 -28 29 0
-476 -31 32 0
-476 -34 35 0
-476 -73 74 0
-476 -76 77 0
-476 -79 80 0
-478 -19 20 0
-478 -22 23 0
-478 -25 26 0
-478 -28 29 0
-478 -31 32 0
-478 -34 35 0
-478 -73 74 0
-478 -76 77 0
-478 -79 80 0
-480 -19 20 0
-480 -22 23 0
-480 -25 26 0
-480 -28 29 0
-480 -31 32 0
-480 -34 35 0
-480 -73 74 0
-480 -76 77 0
-480 -79 80 0
-482 -19 20 0
-482 -22 23 0
-482 -25 26 0
-482 -28 29 0
-482 -31 32 0
-482 -34 35 0
-482 -73 74 0
-482 -76 77 0
-482 -79 80 0
-484 -19 20 0
-484 -22 23 0
-484 -25 26 0
-484 -28 29 0
-484 -31 32 0
-484 -34 35 0
-484 -73 74 0
-484 -76 77 0
-484 -79 80 0
-486 -19 20 0
-486 -22 23 0
-486 -25 26 0
-486 -28 29 0
-486 -31 32 0
-486 -34 35 0
-486 -73 74 0
-486 -76 77 0
-486 -79 80 0
-488 -19 20 0
-488 -22 23 0
-488 -25 26 0
-488 -28 29 0
-488 -31 32 0
-488 -34 35 0
-488 -73 74 0
-488 -76 77 0
-488 -79 80 0
-490 -19 20 0
-490 -22 23 0
-490 -25 26 0
-490 -28 29 0
-490 -31 32 0
-490 -34 35 0
-490 -73 74 0
-490 -76 77 0
-490 -79 80 0
-492 -19 20 0
-492 -22 23 0
-492 -25 26 0
-492 -28 29 0
-492 -31 32 0
-492 -34 35 0
-492 -73 74 0
-492 -76 77 0
-492 -79 80 0
-494 -19 20 0
-494 -22 23 0
-494 -25 26 0
-494 -28 29 0
-494 -31 32 0
-494 -34 35 0
-494 -73 74 0
-494 -76 77 0
-494 -79 80 0
-328 -37 38 0
-328 -40 41 0
-328 -43 44 0
-328 -46 47 0
-328 -49 50 0
-328 -82 83 0
-328 -85 86 0
-328 -88 89 0
-330 -37 38 0
-330 -40 41 0
-330 -43 44 0
-330 -46 47 0
-330 -49 50 0
-330 -82 83 0
-330 -85 86 0
-330 -88 89 0
-332 -37 38 0
-332 -40 41 0
-332 -43 44 0
-332 -46 47 0
-332 -49 50 0
-332 -82 83 0
-332 -85 86 0
-332 -88 89 0
-334 -37 38 0
-334 -40 41 0
-334 -43 44 0
-334 -46 47 0
-334 -49 50 0
-334 -82 83 0
-334 -85 86 0
-334 -88 89 0
-336 -37 38 0
-336 -40 41 0
-336 -43 44 0
-336 -46 47 0
-336 -49 50 0
-336 -82 83 0
-336 -85 86 0
-336 -88 89 0
-338 -37 38 0
-338 -40 41 0
-338 -43 44 0
-338 -46 47 0
-338 -49 50 0
-338 -82 83 0
-338 -85 86 0
-338 -88 89 0
-340 -37 38 0
-340 -40 41 0
-340 -43 44 0
-340 -46 47 0
-340 -49 50 0
-340 -82 83 0
-340 -85 86 0
-340 -88 89 0
-342 -37 38 0
-342 -40 41 0
-342 -43 44 0
-342 -46 47 0
-342 -49 50 0
-342 -82 83 0
-342 -85 86 0
-342 -88 89 0
-344 -37 38 0
-344 -40 41 0
-344 -43 44 0
-344 -46 47 0
-344 -49 50 0
-344 -82 83 0
-344 -85 86 0
-344 -88 89 0
-346 -37 38 0
-346 -40 41 0
-346 -43 44 0
-346 -46 47 0
-346 -49 50 0
-346 -82 83 0
-346 -85 86 0
-346 -88 89 0
-348 -37 38 0
-348 -40 41 0
-348 -43 44 0
-348 -46 47 0
-348 -49 50 0
-348 -82 83 0
-348 -85 86 0
-348 -88 89 0
-350 -37 38 0
-350 -40 41 0
-350 -43 44 0
-350 -46 47 0
-350 -49 50 0
-350 -82 83 0
-350 -85 86 0
-350 -88 89 0
-352 -37 38 0
-352 -40 41 0
-352 -43 44 0
-352 -46 47 0
-352 -49 50 0
-352 -82 83 0
-352 -85 86 0
-352 -88 89 0
-354 -37 38 0
-354 -40 41 0
-354 -43 44 0
-354 -46 47 0
-354 -49 50 0
-354 -82 83 0
-354 -85 86 0
-354 -88 89 0
-356 -37 38 0
-356 -40 41 0
-356 -43 44 0
-356 -46 47 0
-356 -49 50 0
-356 -82 83 0
-356 -85 86 0
-356 -88 89 0
-358 -37 38 0
-358 -40 41 0
-358 -43 44 0
-358 -46 47 0
-358 -49 50 0
-358 -82 83 0
-358 -85 86 0
-358 -88 89 0
-360 -37 38 0
-360 -40 41 0
-360 -43 44 0
-360 -46 47 0
-360 -49 50 0
-360 -82 83 0
-360 -85 86 0
-360 -88 89 0
-362 -37 38 0
-362 -40 41 0
-362 -43 44 0
-362 -46 47 0
-362 -49 50 0
-362 -82 83 0
-362 -85 86 0
-362 -88 89 0
-364 -37 38 0
-364 -40 41 0
-364 -43 44 0
-364 -46 47 0
-364 -49 50 0
-364 -82 83 0
-364 -85 86 0
-364 -88 89 0
-366 -37 38 0
-366 -40 41 0
-366 -43 44 0
-366 -46 47 0
-366 -49 50 0
-366 -82 83 0
-366 -85 86 0
-366 -88 89 0
-368 -37 38 0
-368 -40 41 0
-368 -43 44 0
-368 -46 47 0
-368 -49 50 0
-368 -82 83 0
-368 -85 86 0
-368 -88 89 0
-370 -37 38 0
-370 -40 41 0
-370 -43 44 0
-370 -46 47 0
-370 -49 50 0
-370 -82 83 0
-370 -85 86 0
-370 -88 89 0
-372 -37 38 0
-372 -40 41 0
-372 -43 44 0
-372 -46 47 0
-372 -49 50 0
-372 -82 83 0
-372 -85 86 0
-372 -88 89 0
-374 -37 38 0
-374 -40 41 0
-374 -43 44 0
-374 -46 47 0
-374 -49 50 0
-374 -82 83 0
-374 -85 86 0
-374 -88 89 0
-376 -37 38 0
-376 -40 41 0
-376 -43 44 0
-376 -46 47 0
-376 -49 50 0
-376 -82 83 0
-376 -85 86 0
-376 -88 89 0
-378 -37 38 0
-378 -40 41 0
-378 -43 44 0
-378 -46 47 0
-378 -49 50 0
-378 -82 83 0
-378 -85 86 0
-378 -88 89 0
-380 -37 38 0
-380 -40 41 0
-380 -43 44 0
-380 -46 47 0
-380 -49 50 0
-380 -82 83 0
-380 -85 86 0
-380 -88 89 0
-382 -37 38 0
-382 -40 41 0
-382 -43 44 0
-382 -46 47 0
-382 -49 50 0
-382 -82 83 0
-382 -85 86 0
-382 -88 89 0
-384 -37 38 0
-384 -40 41 0
-384 -43 44 0
-384 -46 47 0
-384 -49 50 0
-384 -82 83 0
-384 -85 86 0
-384 -88 89 0
-386 -37 38 0
-386 -40 41 0
-386 -43 44 0
-386 -46 47 0
-386 -49 50 0
-386 -82 83 0
-386 -85 86 0
-386 -88 89 0
-388 -37 38 0
-388 -40 41 0
-388 -43 44 0
-388 -46 47 0
-388 -49 50 0
-388 -82 83 0
-388 -85 86 0
-388 -88 89 0
-390 -37 38 0
-390 -40 41 0
-390 -43 44 0
-390 -46 47 0
-390 -49 50 0
-390 -82 83 0
-390 -85 86 0
-390 -88 89 0
-392 -37 38 0
-392 -40 41 0
-392 -43 44 0
-392 -46 47 0
-392 -49 50 0
-392 -82 83 0
-392 -85 86 0
-392 -88 89 0
-394 -37 38 0
-394 -40 41 0
-394 -43 44 0
-394 -46 47 0
-394 -49 50 0
-394 -82 83 0
-394 -85 86 0
-394 -88 89 0
-396 -37 38 0
-396 -40 41 0
-396 -43 44 0
-396 -46 47 0
-396 -49 50 0
-396 -82 83 0
-396 -85 86 0
-396 -88 89 0
-398 -37 38 0
-398 -40 41 0
-398 -43 44 0
-398 -46 47 0
-398 -49 50 0
-398 -82 83 0
-398 -85 86 0
-398 -88 89 0
-400 -37 38 0
-400 -40 41 0
-400 -43 44 0
-400 -46 47 0
-400 -49 50 0
-400 -82 83 0
-400 -85 86 0
-400 -88 89 0
-402 -37 38 0
-402 -40 41 0
-402 -43 44 0
-402 -46 47 0
-402 -49 50 0
-402 -82 83 0
-402 -85 86 0
-402 -88 89 0
-404 -37 38 0
-404 -40 41 0
-404 -43 44 0
-404 -46 47 0
-404 -49 50 0
-404 -82 83 0
-404 -85 86 0
-404 -88 89 0
-406 -37 38 0
-406 -40 41 0
-406 -43 44 0
-406 -46 47 0
-406 -49 50 0
-406 -82 83 0
-406 -85 86 0
-406 -88 89 0
-408 -37 38 0
-408 -40 41 0
-408 -43 44 0
-408 -46 47 0
-408 -49 50 0
-408 -82 83 0
-408 -85 86 0
-408 -88 89 0
-410 -37 38 0
-410 -40 41 0
-410 -43 44 0
-410 -46 47 0
-410 -49 50 0
-410 -82 83 0
-410 -85 86 0
-410 -88 89 0
-412 -37 38 0
-412 -40 41 0
-412 -43 44 0
-412 -46 47 0
-412 -49 50 0
-412 -82 83 0
-412 -85 86 0
-412 -88 89 0
-414 -37 38 0
-414 -40 41 0
-414 -43 44 0
-414 -46 47 0
-414 -49 50 0
-414 -82 83 0
-414 -85 86 0
-414 -88 89 0
-416 -37 38 0
-416 -40 41 0
-416 -43 44 0
-416 -46 47 0
-416 -49 50 0
-416 -82 83 0
-416 -85 86 0
-416 -88 89 0
-418 -37 38 0
-418 -40 41 0
-418 -43 44 0
-418 -46 47 0
-418 -49 50 0
-418 -82 83 0
-418 -85 86 0
-418 -88 89 0
-420 -37 38 0
-420 -40 41 0
-420 -43 44 0
-420 -46 47 0
-420 -49 50 0
-420 -82 83 0
-420 -85 86 0
-420 -88 89 0
-422 -37 38 0
-422 -40 41 0
-422 -43 44 0
-422 -46 47 0
-422 -49 50 0
-422 -82 83 0
-422 -85 86 0
-422 -88 89 0
-464 -37 38 0
-464 -40 41 0
-464 -43 44 0
-464 -46 47 0
-464 -49 50 0
-464 -82 83 0
-464 -85 86 0
-464 -88 89 0
-466 -37 38 0
-466 -40 41 0
-466 -43 44 0
-466 -46 47 0
-466 -49 50 0
-466 -82 83 0
-466 -85 86 0
-466 -88 89 0
-468 -37 38 0
-468 -40 41 0
-468 -43 44 0
-468 -46 47 0
-468 -49 50 0
-468 -82 83 0
-468 -85 86 0
-468 -88 89 0
-470 -37 38 0
-470 -40 41 0
-470 -43 44 0
-470 -46 47 0
-470 -49 50 0
-470 -82 83 0
-470 -85 86 0
-470 -88 89 0
-472 -37 38 0
-472 -40 41 0
-472 -43 44 0
-472 -46 47 0
-472 -49 50 0
-472 -82 83 0
-472 -85 86 0
-472 -88 89 0
-474 -37 38 0
-474 -40 41 0
-474 -43 44 0
-474 -46 47 0
-474 -49 50 0
-474 -82 83 0
-474 -85 86 0
-474 -88 89 0
-476 -37 38 0
-476 -40 41 0
-476 -43 44 0
-476 -46 47 0
-476 -49 50 0
-476 -82 83 0
-476 -85 86 0
-476 -88 89 0
-478 -37 38 0
-478 -40 41 0
-478 -43 44 0
-478 -46 47 0
-478 -49 50 0
-478 -82 83 0
-478 -85 86 0
-478 -88 89 0
-480 -37 38 0
-480 -40 41 0
-480 -43 44 0
-480 -46 47 0
-480 -49 50 0
-480 -82 83 0
-480 -85 86 0
-480 -88 89 0
-482 -37 38 0
-482 -40 41 0
-482 -43 44 0
-482 -46 47 0
-482 -49 50 0
-482 -82 83 0
-482 -85 86 0
-482 -88 89 0
-484 -37 38 0
-484 -40 41 0
-484 -43 44 0
-484 -46 47 0
-484 -49 50 0
-484 -82 83 0
-484 -85 86 0
-484 -88 89 0
-486 -37 38 0
-486 -40 41 0
-486 -43 44 0
-486 -46 47 0
-486 -49 50 0
-486 -82 83 0
-486 -85 86 0
-486 -88 89 0
-488 -37 38 0
-488 -40 41 0
-488 -43 44 0
-488 -46 47 0
-488 -49 50 0
-488 -82 83 0
-488 -85 86 0
-488 -88 89 0
-490 -37 38 0
-490 -40 41 0
-490 -43 44 0
-490 -46 47 0
-490 -49 50 0
-490 -82 83 0
-490 -85 86 0
-490 -88 89 0
-492 -37 38 0
-492 -40 41 0
-492 -43 44 0
-492 -46 47 0
-492 -49 50 0
-492 -82 83 0
-492 -85 86 0
-492 -88 89 0
-494 -37 38 0
-494 -40 41 0
-494 -43 44 0
-494 -46 47 0
-494 -49 50 0
-494 -82 83 0
-494 -85 86 0
-494 -88 89 0
-328 -52 53 0
-328 -55 56 0
-328 -58 59 0
-328 -61 62 0
-328 -91 92 0
-328 -94 95 0
-328 -97 98 0
-330 -52 53 0
-330 -55 56 0
-330 -58 59 0
-330 -61 62 0
-330 -91 92 0
-330 -94 95 0
-330 -97 98 0
-332 -52 53 0
-332 -55 56 0
-332 -58 59 0
-332 -61 62 0
-332 -91 92 0
-332 -94 95 0
-332 -97 98 0
-334 -52 53 0
-334 -55 56 0
-334 -58 59 0
-334 -61 62 0
-334 -91 92 0
-334 -94 95 0
-334 -97 98 0
-336 -52 53 0
-336 -55 56 0
-336 -58 59 0
-336 -61 62 0
-336 -91 92 0
-336 -94 95 0
-336 -97 98 0
-338 -52 53 0
-338 -55 56 0
-338 -58 59 0
-338 -61 62 0
-338 -91 92 0
-338 -94 95 0
-338 -97 98 0
-340 -52 53 0
-340 -55 56 0
-340 -58 59 0
-340 -61 62 0
-340 -91 92 0
-340 -94 95 0
-340 -97 98 0
-342 -52 53 0
-342 -55 56 0
-342 -58 59 0
-342 -61 62 0
-342 -91 92 0
-342 -94 95 0
-342 -97 98 0
-344 -52 53 0
-344 -55 56 0
-344 -58 59 0
-344 -61 62 0
-344 -91 92 0
-344 -94 95 0
-344 -97 98 0
-346 -52 53 0
-346 -55 56 0
-346 -58 59 0
-346 -61 62 0
-346 -91 92 0
-346 -94 95 0
-346 -97 98 0
-348 -52 53 0
-348 -55 56 0
-348 -58 59 0
-348 -61 62 0
-348 -91 92 0
-348 -94 95 0
-348 -97 98 0
-350 -52 53 0
-350 -55 56 0
-350 -58 59 0
-350 -61 62 0
-350 -91 92 0
-350 -94 95 0
-350 -97 98 0
-352 -52 53 0
-352 -55 56 0
-352 -58 59 0
-352 -61 62 0
-352 -91 92 0
-352 -94 95 0
-352 -97 98 0
-354 -52 53 0
-354 -55 56 0
-354 -58 59 0
-354 -61 62 0
-354 -91 92 0
-354 -94 95 0
-354 -97 98 0
-356 -52 53 0
-356 -55 56 0
-356 -58 59 0
-356 -61 62 0
-356 -91 92 0
-356 -94 95 0
-356 -97 98 0
-358 -52 53 0
-358 -55 56 0
-358 -58 59 0
-358 -61 62 0
-358 -91 92 0
-358 -94 95 0
-358 -97 98 0
-360 -52 53 0
-360 -55 56 0
-360 -58 59 0
-360 -61 62 0
-360 -91 92 0
-360 -94 95 0
-360 -97 98 0
-362 -52 53 0
-362 -55 56 0
-362 -58 59 0
-362 -61 62 0
-362 -91 92 0
-362 -94 95 0
-362 -97 98 0
-364 -52 53 0
-364 -55 56 0
-364 -58 59 0
-364 -61 62 0
-364 -91 92 0
-364 -94 95 0
-364 -97 98 0
-366 -52 53 0
-366 -55 56 0
-366 -58 59 0
-366 -61 62 0
-366 -91 92 0
-366 -94 95 0
-366 -97 98 0
-368 -52 53 0
-368 -55 56 0
-368 -58 59 0
-368 -61 62 0
-368 -91 92 0
-368 -94 95 0
-368 -97 98 0
-370 -52 53 0
-370 -55 56 0
-370 -58 59 0
-370 -61 62 0
-370 -91 92 0
-370 -94 95 0
-370 -97 98 0
-372 -52 53 0
-372 -55 56 0
-372 -58 59 0
-372 -61 62 0
-372 -91 92 0
-372 -94 95 0
-372 -97 98 0
-374 -52 53 0
-374 -55 56 0
-374 -58 59 0
-374 -61 62 0
-374 -91 92 0
-374 -94 95 0
-374 -97 98 0
-376 -52 53 0
-376 -55 56 0
-376 -58 59 0
-376 -61 62 0
-376 -91 92 0
-376 -94 95 0
-376 -97 98 0
-378 -52 53 0
-378 -55 56 0
-378 -58 59 0
-378 -61 62 0
-378 -91 92 0
-378 -94 95 0
-378 -97 98 0
-380 -52 53 0
-380 -55 56 0
-380 -58 59 0
-380 -61 62 0
-380 -91 92 0
-380 -94 95 0
-380 -97 98 0
-382 -52 53 0
-382 -55 56 0
-382 -58 59 0
-382 -61 62 0
-382 -91 92 0
-382 -94 95 0
-382 -97 98 0
-384 -52 53 0
-384 -55 56 0
-384 -58 59 0
-384 -61 62 0
-384 -91 92 0
-384 -94 95 0
-384 -97 98 0
-386 -52 53 0
-386 -55 56 0
-386 -58 59 0
-386 -61 62 0
-386 -91 92 0
-386 -94 95 0
-386 -97 98 0
-388 -52 53 0
-388 -55 56 0
-388 -58 59 0
-388 -61 62 0
-388 -91 92 0
-388 -94 95 0
-388 -97 98 0
-390 -52 53 0
-390 -55 56 0
-390 -58 59 0
-390 -61 62 0
-390 -91 92 0
-390 -94 95 0
-390 -97 98 0
-392 -52 53 0
-392 -55 56 0
-392 -58 59 0
-392 -61 62 0
-392 -91 92 0
-392 -94 95 0
-392 -97 98 0
-394 -52 53 0
-394 -55 56 0
-394 -58 59 0
-394 -61 62 0
-394 -91 92 0
-394 -94 95 0
-394 -97 98 0
-396 -52 53 0
-396 -55 56 0
-396 -58 59 0
-396 -61 62 0
-396 -91 92 0
-396 -94 95 0
-396 -97 98 0
-398 -52 53 0
-398 -55 56 0
-398 -58 59 0
-398 -61 62 0
-398 -91 92 0
-398 -94 95 0
-398 -97 98 0
-400 -52 53 0
-400 -55 56 0
-400 -58 59 0
-400 -61 62 0
-400 -91 92 0
-400 -94 95 0
-400 -97 98 0
-402 -52 53 0
-402 -55 56 0
-402 -58 59 0
-402 -61 62 0
-402 -91 92 0
-402 -94 95 0
-402 -97 98 0
-404 -52 53 0
-404 -55 56 0
-404 -58 59 0
-404 -61 62 0
-404 -91 92 0
-404 -94 95 0
-404 -97 98 0
-406 -52 53 0
-406 -55 56 0
-406 -58 59 0
-406 -61 62 0
-406 -91 92 0
-406 -94 95 0
-406 -97 98 0
-408 -52 53 0
-408 -55 56 0
-408 -58 59 0
-408 -61 62 0
-408 -91 92 0
-408 -94 95 0
-408 -97 98 0
-410 -52 53 0
-410 -55 56 0
-410 -58 59 0
-410 -61 62 0
-410 -91 92 0
-410 -94 95 0
-410 -97 98 0
-412 -52 53 0
-412 -55 56 0
-412 -58 59 0
-412 -61 62 0
-412 -91 92 0
-412 -94 95 0
-412 -97 98 0
-414 -52 53 0
-414 -55 56 0
-414 -58 59 0
-414 -61 62 0
-414 -91 92 0
-414 -94 95 0
-414 -97 98 0
-416 -52 53 0
-416 -55 56 0
-416 -58 59 0
-416 -61 62 0
-416 -91 92 0
-416 -94 95 0
-416 -97 98 0
-418 -52 53 0
-418 -55 56 0
-418 -58 59 0
-418 -61 62 0
-418 -91 92 0
-418 -94 95 0
-418 -97 98 0
-420 -52 53 0
-420 -55 56 0
-420 -58 59 0
-420 -61 62 0
-420 -91 92 0
-420 -94 95 0
-420 -97 98 0
-422 -52 53 0
-422 -55 56 0
-422 -58 59 0
-422 -61 62 0
-422 -91 92 0
-422 -94 95 0
-422 -97 98 0
-424 -52 53 0
-424 -55 56 0
-424 -58 59 0
-424 -61 62 0
-424 -91 92 0
-424 -94 95 0
-424 -97 98 0
-426 -52 53 0
-426 -55 56 0
-426 -58 59 0
-426 -61 62 0
-426 -91 92 0
-426 -94 95 0
-426 -97 98 0
-428 -52 53 0
-428 -55 56 0
-428 -58 59 0
-428 -61 62 0
-428 -91 92 0
-428 -94 95 0
-428 -97 98 0
-430 -52 53 0
-430 -55 56 0
-430 -58 59 0
-430 -61 62 0
-430 -91 92 0
-430 -94 95 0
-430 -97 98 0
-432 -52 53 0
-432 -55 56 0
-432 -58 59 0
-432 -61 62 0
-432 -91 92 0
-432 -94 95 0
-432 -97 98 0
-434 -52 53 0
-434 -55 56 0
-434 -58 59 0
-434 -61 62 0
-434 -91 92 0
-434 -94 95 0
-434 -97 98 0
-436 -52 53 0
-436 -55 56 0
-436 -58 59 0
-436 -61 62 0
-436 -91 92 0
-436 -94 95 0
-436 -97 98 0
-438 -52 53 0
-438 -55 56 0
-438 -58 59 0
-438 -61 62 0
-438 -91 92 0
-438 -94 95 0
-438 -97 98 0
-440 -52 53 0
-440 -55 56 0
-440 -58 59 0
-440 -61 62 0
-440 -91 92 0
-440 -94 95 0
-440 -97 98 0
-442 -52 53 0
-442 -55 56 0
-442 -58 59 0
-442 -61 62 0
-442 -91 92 0
-442 -94 95 0
-442 -97 98 0
-444 -52 53 0
-444 -55 56 0
-444 -58 59 0
-444 -61 62 0
-444 -91 92 0
-444 -94 95 0
-444 -97 98 0
-446 -52 53 0
-446 -55 56 0
-446 -58 59 0
-446 -61 62 0
-446 -91 92 0
-446 -94 95 0
-446 -97 98 0
-448 -52 53 0
-448 -55 56 0
-448 -58 59 0
-448 -61 62 0
-448 -91 92 0
-448 -94 95 0
-448 -97 98 0
-450 -52 53 0
-450 -55 56 0
-450 -58 59 0
-450 -61 62 0
-450 -91 92 0
-450 -94 95 0
-450 -97 98 0
-452 -52 53 0
-452 -55 56 0
-452 -58 59 0
-452 -61 62 0
-452 -91 92 0
-452 -94 95 0
-452 -97 98 0
-454 -52 53 0
-454 -55 56 0
-454 -58 59 0
-454 -61 62 0
-454 -91 92 0
-454 -94 95 0
-454 -97 98 0
-456 -52 53 0
-456 -55 56 0
-456 -58 59 0
-456 -61 62 0
-456 -91 92 0
-456 -94 95 0
-456 -97 98 0
-458 -52 53 0
-458 -55 56 0
-458 -58 59 0
-458 -61 62 0
-458 -91 92 0
-458 -94 95 0
-458 -97 98 0
-460 -52 53 0
-460 -55 56 0
-460 -58 59 0
-460 -61 62 0
-460 -91 92 0
-460 -94 95 0
-460 -97 98 0
-462 -52 53 0
-462 -55 56 0
-462 -58 59 0
-462 -61 62 0
-462 -91 92 0
-462 -94 95 0
-462 -97 98 0
-377 -2 3 0
-377 -5 6 0
-377 -8 9 0
-377 -11 12 0
-377 -14 15 0
-377 -17 18 0
-377 -65 66 0
-377 -68 69 0
-377 -71 72 0
-379 -2 3 0
-379 -5 6 0
-379 -8 9 0
-379 -11 12 0
-379 -14 15 0
-379 -17 18 0
-379 -65 66 0
-379 -68 69 0
-379 -71 72 0
-381 -2 3 0
-381 -5 6 0
-381 -8 9 0
-381 -11 12 0
-381 -14 15 0
-381 -17 18 0
-381 -65 66 0
-381 -68 69 0
-381 -71 72 0
-383 -2 3 0
-383 -5 6 0
-383 -8 9 0
-383 -11 12 0
-383 -14 15 0
-383 -17 18 0
-383 -65 66 0
-383 -68 69 0
-383 -71 72 0
-385 -2 3 0
-385 -5 6 0
-385 -8 9 0
-385 -11 12 0
-385 -14 15 0
-385 -17 18 0
-385 -65 66 0
-385 -68 69 0
-385 -71 72 0
-387 -2 3 0
-387 -5 6 0
-387 -8 9 0
-387 -11 12 0
-387 -14 15 0
-387 -17 18 0
-387 -65 66 0
-387 -68 69 0
-387 -71 72 0
-389 -2 3 0
-389 -5 6 0
-389 -8 9 0
-389 -11 12 0
-389 -14 15 0
-389 -17 18 0
-389 -65 66 0
-389 -68 69 0
-389 -71 72 0
-391 -2 3 0
-391 -5 6 0
-391 -8 9 0
-391 -11 12 0
-391 -14 15 0
-391 -17 18 0
-391 -65 66 0
-391 -68 69 0
-391 -71 72 0
-393 -2 3 0
-393 -5 6 0
-393 -8 9 0
-393 -11 12 0
-393 -14 15 0
-393 -17 18 0
-393 -65 66 0
-393 -68 69 0
-393 -71 72 0
-395 -2 3 0
-395 -5 6 0
-395 -8 9 0
-395 -11 12 0
-395 -14 15 0
-395 -17 18 0
-395 -65 66 0
-395 -68 69 0
-395 -71 72 0
-397 -2 3 0
-397 -5 6 0
-397 -8 9 0
-397 -11 12 0
-397 -14 15 0
-397 -17 18 0
-397 -65 66 0
-397 -68 69 0
-397 -71 72 0
-399 -2 3 0
-399 -5 6 0
-399 -8 9 0
-399 -11 12 0
-399 -14 15 0
-399 -17 18 0
-399 -65 66 0
-399 -68 69 0
-399 -71 72 0
-401 -2 3 0
-401 -5 6 0
-401 -8 9 0
-401 -11 12 0
-401 -14 15 0
-401 -17 18 0
-401 -65 66 0
-401 -68 69 0
-401 -71 72 0
-403 -2 3 0
-403 -5 6 0
-403 -8 9 0
-403 -11 12 0
-403 -14 15 0
-403 -17 18 0
-403 -65 66 0
-403 -68 69 0
-403 -71 72 0
-405 -2 3 0
-405 -5 6 0
-405 -8 9 0
-405 -11 12 0
-405 -14 15 0
-405 -17 18 0
-405 -65 66 0
-405 -68 69 0
-405 -71 72 0
-407 -2 3 0
-407 -5 6 0
-407 -8 9 0
-407 -11 12 0
-407 -14 15 0
-407 -17 18 0
-407 -65 66 0
-407 -68 69 0
-407 -71 72 0
-409 -2 3 0
-409 -5 6 0
-409 -8 9 0
-409 -11 12 0
-409 -14 15 0
-409 -17 18 0
-409 -65 66 0
-409 -68 69 0
-409 -71 72 0
-411 -2 3 0
-411 -5 6 0
-411 -8 9 0
-411 -11 12 0
-411 -14 15 0
-411 -17 18 0
-411 -65 66 0
-411 -68 69 0
-411 -71 72 0
-413 -2 3 0
-413 -5 6 0
-413 -8 9 0
-413 -11 12 0
-413 -14 15 0
-413 -17 18 0
-413 -65 66 0
-413 -68 69 0
-413 -71 72 0
-415 -2 3 0
-415 -5 6 0
-415 -8 9 0
-415 -11 12 0
-415 -14 15 0
-415 -17 18 0
-415 -65 66 0
-415 -68 69 0
-415 -71 72 0
-417 -2 3 0
-417 -5 6 0
-417 -8 9 0
-417 -11 12 0
-417 -14 15 0
-417 -17 18 0
-417 -65 66 0
-417 -68 69 0
-417 -71 72 0
-419 -2 3 0
-419 -5 6 0
-419 -8 9 0
-419 -11 12 0
-419 -14 15 0
-419 -17 18 0
-419 -65 66 0
-419 -68 69 0
-419 -71 72 0
-421 -2 3 0
-421 -5 6 0
-421 -8 9 0
-421 -11 12 0
-421 -14 15 0
-421 -17 18 0
-421 -65 66 0
-421 -68 69 0
-421 -71 72 0
-423 -2 3 0
-423 -5 6 0
-423 -8 9 0
-423 -11 12 0
-423 -14 15 0
-423 -17 18 0
-423 -65 66 0
-423 -68 69 0
-423 -71 72 0
-425 -2 3 0
-425 -5 6 0
-425 -8 9 0
-425 -11 12 0
-425 -14 15 0
-425 -17 18 0
-425 -65 66 0
-425 -68 69 0
-425 -71 72 0
-427 -2 3 0
-427 -5 6 0
-427 -8 9 0
-427 -11 12 0
-427 -14 15 0
-427 -17 18 0
-427 -65 66 0
-427 -68 69 0
-427 -71 72 0
-429 -2 3 0
-429 -5 6 0
-429 -8 9 0
-429 -11 12 0
-429 -14 15 0
-429 -17 18 0
-429 -65 66 0
-429 -68 69 0
-429 -71 72 0
-431 -2 3 0
-431 -5 6 0
-431 -8 9 0
-431 -11 12 0
-431 -14 15 0
-431 -17 18 0
-431 -65 66 0
-431 -68 69 0
-431 -71 72 0
-433 -2 3 0
-433 -5 6 0
-433 -8 9 0
-433 -11 12 0
-433 -14 15 0
-433 -17 18 0
-433 -65 66 0
-433 -68 69 0
-433 -71 72 0
-435 -2 3 0
-435 -5 6 0
-435 -8 9 0
-435 -11 12 0
-435 -14 15 0
-435 -17 18 0
-435 -65 66 0
-435 -68 69 0
-435 -71 72 0
-437 -2 3 0
-437 -5 6 0
-437 -8 9 0
-437 -11 12 0
-437 -14 15 0
-437 -17 18 0
-437 -65 66 0
-437 -68 69 0
-437 -71 72 0
-439 -2 3 0
-439 -5 6 0
-439 -8 9 0
-439 -11 12 0
-439 -14 15 0
-439 -17 18 0
-439 -65 66 0
-439 -68 69 0
-439 -71 72 0
-441 -2 3 0
-441 -5 6 0
-441 -8 9 0
-441 -11 12 0
-441 -14 15 0
-441 -17 18 0
-441 -65 66 0
-441 -68 69 0
-441 -71 72 0
-443 -2 3 0
-443 -5 6 0
-443 -8 9 0
-443 -11 12 0
-443 -14 15 0
-443 -17 18 0
-443 -65 66 0
-443 -68 69 0
-443 -71 72 0
-445 -2 3 0
-445 -5 6 0
-445 -8 9 0
-445 -11 12 0
-445 -14 15 0
-445 -17 18 0
-445 -65 66 0
-445 -68 69 0
-445 -71 72 0
-447 -2 3 0
-447 -5 6 0
-447 -8 9 0
-447 -11 12 0
-447 -14 15 0
-447 -17 18 0
-447 -65 66 0
-447 -68 69 0
-447 -71 72 0
-449 -2 3 0
-449 -5 6 0
-449 -8 9 0
-449 -11 12 0
-449 -14 15 0
-449 -17 18 0
-449 -65 66 0
-449 -68 69 0
-449 -71 72 0
-451 -2 3 0
-451 -5 6 0
-451 -8 9 0
-451 -11 12 0
-451 -14 15 0
-451 -17 18 0
-451 -65 66 0
-451 -68 69 0
-451 -71 72 0
-453 -2 3 0
-453 -5 6 0
-453 -8 9 0
-453 -11 12 0
-453 -14 15 0
-453 -17 18 0
-453 -65 66 0
-453 -68 69 0
-453 -71 72 0
-455 -2 3 0
-455 -5 6 0
-455 -8 9 0
-455 -11 12 0
-455 -14 15 0
-455 -17 18 0
-455 -65 66 0
-455 -68 69 0
-455 -71 72 0
-457 -2 3 0
-457 -5 6 0
-457 -8 9 0
-457 -11 12 0
-457 -14 15 0
-457 -17 18 0
-457 -65 66 0
-457 -68 69 0
-457 -71 72 0
-459 -2 3 0
-459 -5 6 0
-459 -8 9 0
-459 -11 12 0
-459 -14 15 0
-459 -17 18 0
-459 -65 66 0
-459 -68 69 0
-459 -71 72 0
-461 -2 3 0
-461 -5 6 0
-461 -8 9 0
-461 -11 12 0
-461 -14 15 0
-461 -17 18 0
-461 -65 66 0
-461 -68 69 0
-461 -71 72 0
-463 -2 3 0
-463 -5 6 0
-463 -8 9 0
-463 -11 12 0
-463 -14 15 0
-463 -17 18 0
-463 -65 66 0
-463 -68 69 0
-463 -71 72 0
-465 -2 3 0
-465 -5 6 0
-465 -8 9 0
-465 -11 12 0
-465 -14 15 0
-465 -17 18 0
-465 -65 66 0
-465 -68 69 0
-465 -71 72 0
-467 -2 3 0
-467 -5 6 0
-467 -8 9 0
-467 -11 12 0
-467 -14 15 0
-467 -17 18 0
-467 -65 66 0
-467 -68 69 0
-467 -71 72 0
-469 -2 3 0
-469 -5 6 0
-469 -8 9 0
-469 -11 12 0
-469 -14 15 0
-469 -17 18 0
-469 -65 66 0
-469 -68 69 0
-469 -71 72 0
-471 -2 3 0
-471 -5 6 0
-471 -8 9 0
-471 -11 12 0
-471 -14 15 0
-471 -17 18 0
-471 -65 66 0
-471 -68 69 0
-471 -71 72 0
-473 -2 3 0
-473 -5 6 0
-473 -8 9 0
-473 -11 12 0
-473 -14 15 0
-473 -17 18 0
-473 -65 66 0
-473 -68 69 0
-473 -71 72 0
-475 -2 3 0
-475 -5 6 0
-475 -8 9 0
-475 -11 12 0
-475 -14 15 0
-475 -17 18 0
-475 -65 66 0
-475 -68 69 0
-475 -71 72 0
-477 -2 3 0
-477 -5 6 0
-477 -8 9 0
-477 -11 12 0
-477 -14 15 0
-477 -17 18 0
-477 -65 66 0
-477 -68 69 0
-477 -71 72 0
-479 -2 3 0
-479 -5 6 0
-479 -8 9 0
-479 -11 12 0
-479 -14 15 0
-479 -17 18 0
-479 -65 66 0
-479 -68 69 0
-479 -71 72 0
-481 -2 3 0
-481 -5 6 0
-481 -8 9 0
-481 -11 12 0
-481 -14 15 0
-481 -17 18 0
-481 -65 66 0
-481 -68 69 0
-481 -71 72 0
-483 -2 3 0
-483 -5 6 0
-483 -8 9 0
-483 -11 12 0
-483 -14 15 0
-483 -17 18 0
-483 -65 66 0
-483 -68 69 0
-483 -71 72 0
-485 -2 3 0
-485 -5 6 0
-485 -8 9 0
-485 -11 12 0
-485 -14 15 0
-485 -17 18 0
-485 -65 66 0
-485 -68 69 0
-485 -71 72 0
-487 -2 3 0
-487 -5 6 0
-487 -8 9 0
-487 -11 12 0
-487 -14 15 0
-487 -17 18 0
-487 -65 66 0
-487 -68 69 0
-487 -71 72 0
-489 -2 3 0
-489 -5 6 0
-489 -8 9 0
-489 -11 12 0
-489 -14 15 0
-489 -17 18 0
-489 -65 66 0
-489 -68 69 0
-489 -71 72 0
-491 -2 3 0
-491 -5 6 0
-491 -8 9 0
-491 -11 12 0
-491 -14 15 0
-491 -17 18 0
-491 -65 66 0
-491 -68 69 0
-491 -71 72 0
-493 -2 3 0
-493 -5 6 0
-493 -8 9 0
-493 -11 12 0
-493 -14 15 0
-493 -17 18 0
-493 -65 66 0
-493 -68 69 0
-493 -71 72 0
-495 -2 3 0
-495 -5 6 0
-495 -8 9 0
-495 -11 12 0
-495 -14 15 0
-495 -17 18 0
-495 -65 66 0
-495 -68 69 0
-495 -71 72 0
-329 -20 21 0
-329 -23 24 0
-329 -26 27 0
-329 -29 30 0
-329 -32 33 0
-329 -35 36 0
-329 -74 75 0
-329 -77 78 0
-329 -80 81 0
-331 -20 21 0
-331 -23 24 0
-331 -26 27 0
-331 -29 30 0
-331 -32 33 0
-331 -35 36 0
-331 -74 75 0
-331 -77 78 0
-331 -80 81 0
-333 -20 21 0
-333 -23 24 0
-333 -26 27 0
-333 -29 30 0
-333 -32 33 0
-333 -35 36 0
-333 -74 75 0
-333 -77 78 0
-333 -80 81 0
-335 -20 21 0
-335 -23 24 0
-335 -26 27 0
-335 -29 30 0
-335 -32 33 0
-335 -35 36 0
-335 -74 75 0
-335 -77 78 0
-335 -80 81 0
-337 -20 21 0
-337 -23 24 0
-337 -26 27 0
-337 -29 30 0
-337 -32 33 0
-337 -35 36 0
-337 -74 75 0
-337 -77 78 0
-337 -80 81 0
-339 -20 21 0
-339 -23 24 0
-339 -26 27 0
-339 -29 30 0
-339 -32 33 0
-339 -35 36 0
-339 -74 75 0
-339 -77 78 0
-339 -80 81 0
-341 -20 21 0
-341 -23 24 0
-341 -26 27 0
-341 -29 30 0
-341 -32 33 0
-341 -35 36 0
-341 -74 75 0
-341 -77 78 0
-341 -80 81 0
-343 -20 21 0
-343 -23 24 0
-343 -26 27 0
-343 -29 30 0
-343 -32 33 0
-343 -35 36 0
-343 -74 75 0
-343 -77 78 0
-343 -80 81 0
-345 -20 21 0
-345 -23 24 0
-345 -26 27 0
-345 -29 30 0
-345 -32 33 0
-345 -35 36 0
-345 -74 75 0
-345 -77 78 0
-345 -80 81 0
-347 -20 21 0
-347 -23 24 0
-347 -26 27 0
-347 -29 30 0
-347 -32 33 0
-347 -35 36 0
-347 -74 75 0
-347 -77 78 0
-347 -80 81 0
-349 -20 21 0
-349 -23 24 0
-349 -26 27 0
-349 -29 30 0
-349 -32 33 0
-349 -35 36 0
-349 -74 75 0
-349 -77 78 0
-349 -80 81 0
-351 -20 21 0
-351 -23 24 0
-351 -26 27 0
-351 -29 30 0
-351 -32 33 0
-351 -35 36 0
-351 -74 75 0
-351 -77 78 0
-351 -80 81 0
-353 -20 21 0
-353 -23 24 0
-353 -26 27 0
-353 -29 30 0
-353 -32 33 0
-353 -35 36 0
-353 -74 75 0
-353 -77 78 0
-353 -80 81 0
-355 -20 21 0
-355 -23 24 0
-355 -26 27 0
-355 -29 30 0
-355 -32 33 0
-355 -35 36 0
-355 -74 75 0
-355 -77 78 0
-355 -80 81 0
-357 -20 21 0
-357 -23 24 0
-357 -26 27 0
-357 -29 30 0
-357 -32 33 0
-357 -35 36 0
-357 -74 75 0
-357 -77 78 0
-357 -80 81 0
-359 -20 21 0
-359 -23 24 0
-359 -26 27 0
-359 -29 30 0
-359 -32 33 0
-359 -35 36 0
-359 -74 75 0
-359 -77 78 0
-359 -80 81 0
-361 -20 21 0
-361 -23 24 0
-361 -26 27 0
-361 -29 30 0
-361 -32 33 0
-361 -35 36 0
-361 -74 75 0
-361 -77 78 0
-361 -80 81 0
-363 -20 21 0
-363 -23 24 0
-363 -26 27 0
-363 -29 30 0
-363 -32 33 0
-363 -35 36 0
-363 -74 75 0
-363 -77 78 0
-363 -80 81 0
-365 -20 21 0
-365 -23 24 0
-365 -26 27 0
-365 -29 30 0
-365 -32 33 0
-365 -35 36 0
-365 -74 75 0
-365 -77 78 0
-365 -80 81 0
-367 -20 21 0
-367 -23 24 0
-367 -26 27 0
-367 -29 30 0
-367 -32 33 0
-367 -35 36 0
-367 -74 75 0
-367 -77 78 0
-367 -80 81 0
-369 -20 21 0
-369 -23 24 0
-369 -26 27 0
-369 -29 30 0
-369 -32 33 0
-369 -35 36 0
-369 -74 75 0
-369 -77 78 0
-369 -80 81 0
-371 -20 21 0
-371 -23 24 0
-371 -26 27 0
-371 -29 30 0
-371 -32 33 0
-371 -35 36 0
-371 -74 75 0
-371 -77 78 0
-371 -80 81 0
-373 -20 21 0
-373 -23 24 0
-373 -26 27 0
-373 -29 30 0
-373 -32 33 0
-373 -35 36 0
-373 -74 75 0
-373 -77 78 0
-373 -80 81 0
-375 -20 21 0
-375 -23 24 0
-375 -26 27 0
-375 -29 30 0
-375 -32 33 0
-375 -35 36 0
-375 -74 75 0
-375 -77 78 0
-375 -80 81 0
-425 -20 21 0
-425 -23 24 0
-425 -26 27 0
-425 -29 30 0
-425 -32 33 0
-425 -35 36 0
-425 -74 75 0
-425 -77 78 0
-425 -80 81 0
-427 -20 21 0
-427 -23 24 0
-427 -26 27 0
-427 -29 30 0
-427 -32 33 0
-427 -35 36 0
-427 -74 75 0
-427 -77 78 0
-427 -80 81 0
-429 -20 21 0
-429 -23 24 0
-429 -26 27 0
-429 -29 30 0
-429 -32 33 0
-429 -35 36 0
-429 -74 75 0
-429 -77 78 0
-429 -80 81 0
-431 -20 21 0
-431 -23 24 0
-431 -26 27 0
-431 -29 30 0
-431 -32 33 0
-431 -35 36 0
-431 -74 75 0
-431 -77 78 0
-431 -80 81 0
-433 -20 21 0
-433 -23 24 0
-433 -26 27 0
-433 -29 30 0
-433 -32 33 0
-433 -35 36 0
-433 -74 75 0
-433 -77 78 0
-433 -80 81 0
-435 -20 21 0
-435 -23 24 0
-435 -26 27 0
-435 -29 30 0
-435 -32 33 0
-435 -35 36 0
-435 -74 75 0
-435 -77 78 0
-435 -80 81 0
-437 -20 21 0
-437 -23 24 0
-437 -26 27 0
-437 -29 30 0
-437 -32 33 0
-437 -35 36 0
-437 -74 75 0
-437 -77 78 0
-437 -80 81 0
-439 -20 21 0
-439 -23 24 0
-439 -26 27 0
-439 -29 30 0
-439 -32 33 0
-439 -35 36 0
-439 -74 75 0
-439 -77 78 0
-439 -80 81 0
-441 -20 21 0
-441 -23 24 0
-441 -26 27 0
-441 -29 30 0
-441 -32 33 0
-441 -35 36 0
-441 -74 75 0
-441 -77 78 0
-441 -80 81 0
-443 -20 21 0
-443 -23 24 0
-443 -26 27 0
-443 -29 30 0
-443 -32 33 0
-443 -35 36 0
-443 -74 75 0
-443 -77 78 0
-443 -80 81 0
-445 -20 21 0
-445 -23 24 0
-445 -26 27 0
-445 -29 30 0
-445 -32 33 0
-445 -35 36 0
-445 -74 75 0
-445 -77 78 0
-445 -80 81 0
-447 -20 21 0
-447 -23 24 0
-447 -26 27 0
-447 -29 30 0
-447 -32 33 0
-447 -35 36 0
-447 -74 75 0
-447 -77 78 0
-447 -80 81 0
-449 -20 21 0
-449 -23 24 0
-449 -26 27 0
-449 -29 30 0
-449 -32 33 0
-449 -35 36 0
-449 -74 75 0
-449 -77 78 0
-449 -80 81 0
-451 -20 21 0
-451 -23 24 0
-451 -26 27 0
-451 -29 30 0
-451 -32 33 0
-451 -35 36 0
-451 -74 75 0
-451 -77 78 0
-451 -80 81 0
-453 -20 21 0
-453 -23 24 0
-453 -26 27 0
-453 -29 30 0
-453 -32 33 0
-453 -35 36 0
-453 -74 75 0
-453 -77 78 0
-453 -80 81 0
-455 -20 21 0
-455 -23 24 0
-455 -26 27 0
-455 -29 30 0
-455 -32 33 0
-455 -35 36 0
-455 -74 75 0
-455 -77 78 0
-455 -80 81 0
-457 -20 21 0
-457 -23 24 0
-457 -26 27 0
-457 -29 30 0
-457 -32 33 0
-457 -35 36 0
-457 -74 75 0
-457 -77 78 0
-457 -80 81 0
-459 -20 21 0
-459 -23 24 0
-459 -26 27 0
-459 -29 30 0
-459 -32 33 0
-459 -35 36 0
-459 -74 75 0
-459 -77 78 0
-459 -80 81 0
-461 -20 21 0
-461 -23 24 0
-461 -26 27 0
-461 -29 30 0
-461 -32 33 0
-461 -35 36 0
-461 -74 75 0
-461 -77 78 0
-461 -80 81 0
-463 -20 21 0
-463 -23 24 0
-463 -26 27 0
-463 -29 30 0
-463 -32 33 0
-463 -35 36 0
-463 -74 75 0
-463 -77 78 0
-463 -80 81 0
-465 -20 21 0
-465 -23 24 0
-465 -26 27 0
-465 -29 30 0
-465 -32 33 0
-465 -35 36 0
-465 -74 75 0
-465 -77 78 0
-465 -80 81 0
-467 -20 21 0
-467 -23 24 0
-467 -26 27 0
-467 -29 30 0
-467 -32 33 0
-467 -35 36 0
-467 -74 75 0
-467 -77 78 0
-467 -80 81 0
-469 -20 21 0
-469 -23 24 0
-469 -26 27 0
-469 -29 30 0
-469 -32 33 0
-469 -35 36 0
-469 -74 75 0
-469 -77 78 0
-469 -80 81 0
-471 -20 21 0
-471 -23 24 0
-471 -26 27 0
-471 -29 30 0
-471 -32 33 0
-471 -35 36 0
-471 -74 75 0
-471 -77 78 0
-471 -80 81 0
-473 -20 21 0
-473 -23 24 0
-473 -26 27 0
-473 -29 30 0
-473 -32 33 0
-473 -35 36 0
-473 -74 75 0
-473 -77 78 0
-473 -80 81 0
-475 -20 21 0
-475 -23 24 0
-475 -26 27 0
-475 -29 30 0
-475 -32 33 0
-475 -35 36 0
-475 -74 75 0
-475 -77 78 0
-475 -80 81 0
-477 -20 21 0
-477 -23 24 0
-477 -26 27 0
-477 -29 30 0
-477 -32 33 0
-477 -35 36 0
-477 -74 75 0
-477 -77 78 0
-477 -80 81 0
-479 -20 21 0
-479 -23 24 0
-479 -26 27 0
-479 -29 30 0
-479 -32 33 0
-479 -35 36 0
-479 -74 75 0
-479 -77 78 0
-479 -80 81 0
-481 -20 21 0
-481 -23 24 0
-481 -26 27 0
-481 -29 30 0
-481 -32 33 0
-481 -35 36 0
-481 -74 75 0
-481 -77 78 0
-481 -80 81 0
-483 -20 21 0
-483 -23 24 0
-483 -26 27 0
-483 -29 30 0
-483 -32 33 0
-483 -35 36 0
-483 -74 75 0
-483 -77 78 0
-483 -80 81 0
-485 -20 21 0
-485 -23 24 0
-485 -26 27 0
-485 -29 30 0
-485 -32 33 0
-485 -35 36 0
-485 -74 75 0
-485 -77 78 0
-485 -80 81 0
-487 -20 21 0
-487 -23 24 0
-487 -26 27 0
-487 -29 30 0
-487 -32 33 0
-487 -35 36 0
-487 -74 75 0
-487 -77 78 0
-487 -80 81 0
-489 -20 21 0
-489 -23 24 0
-489 -26 27 0
-489 -29 30 0
-489 -32 33 0
-489 -35 36 0
-489 -74 75 0
-489 -77 78 0
-489 -80 81 0
-491 -20 21 0
-491 -23 24 0
-491 -26 27 0
-491 -29 30 0
-491 -32 33 0
-491 -35 36 0
-491 -74 75 0
-491 -77 78 0
-491 -80 81 0
-493 -20 21 0
-493 -23 24 0
-493 -26 27 0
-493 -29 30 0
-493 -32 33 0
-493 -35 36 0
-493 -74 75 0
-493 -77 78 0
-493 -80 81 0
-495 -20 21 0
-495 -23 24 0
-495 -26 27 0
-495 -29 30 0
-495 -32 33 0
-495 -35 36 0
-495 -74 75 0
-495 -77 78 0
-495 -80 81 0
-329 -38 39 0
-329 -41 42 0
-329 -44 45 0
-329 -47 48 0
-329 -50 51 0
-329 -83 84 0
-329 -86 87 0
-329 -89 90 0
-331 -38 39 0
-331 -41 42 0
-331 -44 45 0
-331 -47 48 0
-331 -50 51 0
-331 -83 84 0
-331 -86 87 0
-331 -89 90 0
-333 -38 39 0
-333 -41 42 0
-333 -44 45 0
-333 -47 48 0
-333 -50 51 0
-333 -83 84 0
-333 -86 87 0
-333 -89 90 0
-335 -38 39 0
-335 -41 42 0
-335 -44 45 0
-335 -47 48 0
-335 -50 51 0
-335 -83 84 0
-335 -86 87 0
-335 -89 90 0
-337 -38 39 0
-337 -41 42 0
-337 -44 45 0
-337 -47 48 0
-337 -50 51 0
-337 -83 84 0
-337 -86 87 0
-337 -89 90 0
-339 -38 39 0
-339 -41 42 0
-339 -44 45 0
-339 -47 48 0
-339 -50 51 0
-339 -83 84 0
-339 -86 87 0
-339 -89 90 0
-341 -38 39 0
-341 -41 42 0
-341 -44 45 0
-341 -47 48 0
-341 -50 51 0
-341 -83 84 0
-341 -86 87 0
-341 -89 90 0
-343 -38 39 0
-343 -41 42 0
-343 -44 45 0
-343 -47 48 0
-343 -50 51 0
-343 -83 84 0
-343 -86 87 0
-343 -89 90 0
-345 -38 39 0
-345 -41 42 0
-345 -44 45 0
-345 -47 48 0
-345 -50 51 0
-345 -83 84 0
-345 -86 87 0
-345 -89 90 0
-347 -38 39 0
-347 -41 42 0
-347 -44 45 0
-347 -47 48 0
-347 -50 51 0
-347 -83 84 0
-347 -86 87 0
-347 -89 90 0
-349 -38 39 0
-349 -41 42 0
-349 -44 45 0
-349 -47 48 0
-349 -50 51 0
-349 -83 84 0
-349 -86 87 0
-349 -89 90 0
-351 -38 39 0
-351 -41 42 0
-351 -44 45 0
-351 -47 48 0
-351 -50 51 0
-351 -83 84 0
-351 -86 87 0
-351 -89 90 0
-353 -38 39 0
-353 -41 42 0
-353 -44 45 0
-353 -47 48 0
-353 -50 51 0
-353 -83 84 0
-353 -86 87 0
-353 -89 90 0
-355 -38 39 0
-355 -41 42 0
-355 -44 45 0
-355 -47 48 0
-355 -50 51 0
-355 -83 84 0
-355 -86 87 0
-355 -89 90 0
-357 -38 39 0
-357 -41 42 0
-357 -44 45 0
-357 -47 48 0
-357 -50 51 0
-357 -83 84 0
-357 -86 87 0
-357 -89 90 0
-359 -38 39 0
-359 -41 42 0
-359 -44 45 0
-359 -47 48 0
-359 -50 51 0
-359 -83 84 0
-359 -86 87 0
-359 -89 90 0
-361 -38 39 0
-361 -41 42 0
-361 -44 45 0
-361 -47 48 0
-361 -50 51 0
-361 -83 84 0
-361 -86 87 0
-361 -89 90 0
-363 -38 39 0
-363 -41 42 0
-363 -44 45 0
-363 -47 48 0
-363 -50 51 0
-363 -83 84 0
-363 -86 87 0
-363 -89 90 0
-365 -38 39 0
-365 -41 42 0
-365 -44 45 0
-365 -47 48 0
-365 -50 51 0
-365 -83 84 0
-365 -86 87 0
-365 -89 90 0
-367 -38 39 0
-367 -41 42 0
-367 -44 45 0
-367 -47 48 0
-367 -50 51 0
-367 -83 84 0
-367 -86 87 0
-367 -89 90 0
-369 -38 39 0
-369 -41 42 0
-369 -44 45 0
-369 -47 48 0
-369 -50 51 0
-369 -83 84 0
-369 -86 87 0
-369 -89 90 0
-371 -38 39 0
-371 -41 42 0
-371 -44 45 0
-371 -47 48 0
-371 -50 51 0
-371 -83 84 0
-371 -86 87 0
-371 -89 90 0
-373 -38 39 0
-373 -41 42 0
-373 -44 45 0
-373 -47 48 0
-373 -50 51 0
-373 -83 84 0
-373 -86 87 0
-373 -89 90 0
-375 -38 39 0
-375 -41 42 0
-375 -44 45 0
-375 -47 48 0
-375 -50 51 0
-375 -83 84 0
-375 -86 87 0
-375 -89 90 0
-377 -38 39 0
-377 -41 42 0
-377 -44 45 0
-377 -47 48 0
-377 -50 51 0
-377 -83 84 0
-377 -86 87 0
-377 -89 90 0
-379 -38 39 0
-379 -41 42 0
-379 -44 45 0
-379 -47 48 0
-379 -50 51 0
-379 -83 84 0
-379 -86 87 0
-379 -89 90 0
-381 -38 39 0
-381 -41 42 0
-381 -44 45 0
-381 -47 48 0
-381 -50 51 0
-381 -83 84 0
-381 -86 87 0
-381 -89 90 0
-383 -38 39 0
-383 -41 42 0
-383 -44 45 0
-383 -47 48 0
-383 -50 51 0
-383 -83 84 0
-383 -86 87 0
-383 -89 90 0
-385 -38 39 0
-385 -41 42 0
-385 -44 45 0
-385 -47 48 0
-385 -50 51 0
-385 -83 84 0
-385 -86 87 0
-385 -89 90 0
-387 -38 39 0
-387 -41 42 0
-387 -44 45 0
-387 -47 48 0
-387 -50 51 0
-387 -83 84 0
-387 -86 87 0
-387 -89 90 0
-389 -38 39 0
-389 -41 42 0
-389 -44 45 0
-389 -47 48 0
-389 -50 51 0
-389 -83 84 0
-389 -86 87 0
-389 -89 90 0
-391 -38 39 0
-391 -41 42 0
-391 -44 45 0
-391 -47 48 0
-391 -50 51 0
-391 -83 84 0
-391 -86 87 0
-391 -89 90 0
-393 -38 39 0
-393 -41 42 0
-393 -44 45 0
-393 -47 48 0
-393 -50 51 0
-393 -83 84 0
-393 -86 87 0
-393 -89 90 0
-395 -38 39 0
-395 -41 42 0
-395 -44 45 0
-395 -47 48 0
-395 -50 51 0
-395 -83 84 0
-395 -86 87 0
-395 -89 90 0
-397 -38 39 0
-397 -41 42 0
-397 -44 45 0
-397 -47 48 0
-397 -50 51 0
-397 -83 84 0
-397 -86 87 0
-397 -89 90 0
-399 -38 39 0
-399 -41 42 0
-399 -44 45 0
-399 -47 48 0
-399 -50 51 0
-399 -83 84 0
-399 -86 87 0
-399 -89 90 0
-401 -38 39 0
-401 -41 42 0
-401 -44 45 0
-401 -47 48 0
-401 -50 51 0
-401 -83 84 0
-401 -86 87 0
-401 -89 90 0
-403 -38 39 0
-403 -41 42 0
-403 -44 45 0
-403 -47 48 0
-403 -50 51 0
-403 -83 84 0
-403 -86 87 0
-403 -89 90 0
-405 -38 39 0
-405 -41 42 0
-405 -44 45 0
-405 -47 48 0
-405 -50 51 0
-405 -83 84 0
-405 -86 87 0
-405 -89 90 0
-407 -38 39 0
-407 -41 42 0
-407 -44 45 0
-407 -47 48 0
-407 -50 51 0
-407 -83 84 0
-407 -86 87 0
-407 -89 90 0
-409 -38 39 0
-409 -41 42 0
-409 -44 45 0
-409 -47 48 0
-409 -50 51 0
-409 -83 84 0
-409 -86 87 0
-409 -89 90 0
-411 -38 39 0
-411 -41 42 0
-411 -44 45 0
-411 -47 48 0
-411 -50 51 0
-411 -83 84 0
-411 -86 87 0
-411 -89 90 0
-413 -38 39 0
-413 -41 42 0
-413 -44 45 0
-413 -47 48 0
-413 -50 51 0
-413 -83 84 0
-413 -86 87 0
-413 -89 90 0
-415 -38 39 0
-415 -41 42 0
-415 -44 45 0
-415 -47 48 0
-415 -50 51 0
-415 -83 84 0
-415 -86 87 0
-415 -89 90 0
-417 -38 39 0
-417 -41 42 0
-417 -44 45 0
-417 -47 48 0
-417 -50 51 0
-417 -83 84 0
-417 -86 87 0
-417 -89 90 0
-419 -38 39 0
-419 -41 42 0
-419 -44 45 0
-419 -47 48 0
-419 -50 51 0
-419 -83 84 0
-419 -86 87 0
-419 -89 90 0
-421 -38 39 0
-421 -41 42 0
-421 -44 45 0
-421 -47 48 0
-421 -50 51 0
-421 -83 84 0
-421 -86 87 0
-421 -89 90 0
-423 -38 39 0
-423 -41 42 0
-423 -44 45 0
-423 -47 48 0
-423 -50 51 0
-423 -83 84 0
-423 -86 87 0
-423 -89 90 0
-465 -38 39 0
-465 -41 42 0
-465 -44 45 0
-465 -47 48 0
-465 -50 51 0
-465 -83 84 0
-465 -86 87 0
-465 -89 90 0
-467 -38 39 0
-467 -41 42 0
-467 -44 45 0
-467 -47 48 0
-467 -50 51 0
-467 -83 84 0
-467 -86 87 0
-467 -89 90 0
-469 -38 39 0
-469 -41 42 0
-469 -44 45 0
-469 -47 48 0
-469 -50 51 0
-469 -83 84 0
-469 -86 87 0
-469 -89 90 0
-471 -38 39 0
-471 -41 42 0
-471 -44 45 0
-471 -47 48 0
-471 -50 51 0
-471 -83 84 0
-471 -86 87 0
-471 -89 90 0
-473 -38 39 0
-473 -41 42 0
-473 -44 45 0
-473 -47 48 0
-473 -50 51 0
-473 -83 84 0
-473 -86 87 0
-473 -89 90 0
-475 -38 39 0
-475 -41 42 0
-475 -44 45 0
-475 -47 48 0
-475 -50 51 0
-475 -83 84 0
-475 -86 87 0
-475 -89 90 0
-477 -38 39 0
-477 -41 42 0
-477 -44 45 0
-477 -47 48 0
-477 -50 51 0
-477 -83 84 0
-477 -86 87 0
-477 -89 90 0
-479 -38 39 0
-479 -41 42 0
-479 -44 45 0
-479 -47 48 0
-479 -50 51 0
-479 -83 84 0
-479 -86 87 0
-479 -89 90 0
-481 -38 39 0
-481 -41 42 0
-481 -44 45 0
-481 -47 48 0
-481 -50 51 0
-481 -83 84 0
-481 -86 87 0
-481 -89 90 0
-483 -38 39 0
-483 -41 42 0
-483 -44 45 0
-483 -47 48 0
-483 -50 51 0
-483 -83 84 0
-483 -86 87 0
-483 -89 90 0
-485 -38 39 0
-485 -41 42 0
-485 -44 45 0
-485 -47 48 0
-485 -50 51 0
-485 -83 84 0
-485 -86 87 0
-485 -89 90 0
-487 -38 39 0
-487 -41 42 0
-487 -44 45 0
-487 -47 48 0
-487 -50 51 0
-487 -83 84 0
-487 -86 87 0
-487 -89 90 0
-489 -38 39 0
-489 -41 42 0
-489 -44 45 0
-489 -47 48 0
-489 -50 51 0
-489 -83 84 0
-489 -86 87 0
-489 -89 90 0
-491 -38 39 0
-491 -41 42 0
-491 -44 45 0
-491 -47 48 0
-491 -50 51 0
-491 -83 84 0
-491 -86 87 0
-491 -89 90 0
-493 -38 39 0
-493 -41 42 0
-493 -44 45 0
-493 -47 48 0
-493 -50 51 0
-493 -83 84 0
-493 -86 87 0
-493 -89 90 0
-495 -38 39 0
-495 -41 42 0
-495 -44 45 0
-495 -47 48 0
-495 -50 51 0
-495 -83 84 0
-495 -86 87 0
-495 -89 90 0
-329 -53 54 0
-329 -56 57 0
-329 -59 60 0
-329 -62 63 0
-329 -92 93 0
-329 -95 96 0
-329 -98 99 0
-331 -53 54 0
-331 -56 57 0
-331 -59 60 0
-331 -62 63 0
-331 -92 93 0
-331 -95 96 0
-331 -98 99 0
-333 -53 54 0
-333 -56 57 0
-333 -59 60 0
-333 -62 63 0
-333 -92 93 0
-333 -95 96 0
-333 -98 99 0
-335 -53 54 0
-335 -56 57 0
-335 -59 60 0
-335 -62 63 0
-335 -92 93 0
-335 -95 96 0
-335 -98 99 0
-337 -53 54 0
-337 -56 57 0
-337 -59 60 0
-337 -62 63 0
-337 -92 93 0
-337 -95 96 0
-337 -98 99 0
-339 -53 54 0
-339 -56 57 0
-339 -59 60 0
-339 -62 63 0
-339 -92 93 0
-339 -95 96 0
-339 -98 99 0
-341 -53 54 0
-341 -56 57 0
-341 -59 60 0
-341 -62 63 0
-341 -92 93 0
-341 -95 96 0
-341 -98 99 0
-343 -53 54 0
-343 -56 57 0
-343 -59 60 0
-343 -62 63 0
-343 -92 93 0
-343 -95 96 0
-343 -98 99 0
-345 -53 54 0
-345 -56 57 0
-345 -59 60 0
-345 -62 63 0
-345 -92 93 0
-345 -95 96 0
-345 -98 99 0
-347 -53 54 0
-347 -56 57 0
-347 -59 60 0
-347 -62 63 0
-347 -92 93 0
-347 -95 96 0
-347 -98 99 0
-349 -53 54 0
-349 -56 57 0
-349 -59 60 0
-349 -62 63 0
-349 -92 93 0
-349 -95 96 0
-349 -98 99 0
-351 -53 54 0
-351 -56 57 0
-351 -59 60 0
-351 -62 63 0
-351 -92 93 0
-351 -95 96 0
-351 -98 99 0
-353 -53 54 0
-353 -56 57 0
-353 -59 60 0
-353 -62 63 0
-353 -92 93 0
-353 -95 96 0
-353 -98 99 0
-355 -53 54 0
-355 -56 57 0
-355 -59 60 0
-355 -62 63 0
-355 -92 93 0
-355 -95 96 0
-355 -98 99 0
-357 -53 54 0
-357 -56 57 0
-357 -59 60 0
-357 -62 63 0
-357 -92 93 0
-357 -95 96 0
-357 -98 99 0
-359 -53 54 0
-359 -56 57 0
-359 -59 60 0
-359 -62 63 0
-359 -92 93 0
-359 -95 96 0
-359 -98 99 0
-361 -53 54 0
-361 -56 57 0
-361 -59 60 0
-361 -62 63 0
-361 -92 93 0
-361 -95 96 0
-361 -98 99 0
-363 -53 54 0
-363 -56 57 0
-363 -59 60 0
-363 -62 63 0
-363 -92 93 0
-363 -95 96 0
-363 -98 99 0
-365 -53 54 0
-365 -56 57 0
-365 -59 60 0
-365 -62 63 0
-365 -92 93 0
-365 -95 96 0
-365 -98 99 0
-367 -53 54 0
-367 -56 57 0
-367 -59 60 0
-367 -62 63 0
-367 -92 93 0
-367 -95 96 0
-367 -98 99 0
-369 -53 54 0
-369 -56 57 0
-369 -59 60 0
-369 -62 63 0
-369 -92 93 0
-369 -95 96 0
-369 -98 99 0
-371 -53 54 0
-371 -56 57 0
-371 -59 60 0
-371 -62 63 0
-371 -92 93 0
-371 -95 96 0
-371 -98 99 0
-373 -53 54 0
-373 -56 57 0
-373 -59 60 0
-373 -62 63 0
-373 -92 93 0
-373 -95 96 0
-373 -98 99 0
-375 -53 54 0
-375 -56 57 0
-375 -59 60 0
-375 -62 63 0
-375 -92 93 0
-375 -95 96 0
-375 -98 99 0
-377 -53 54 0
-377 -56 57 0
-377 -59 60 0
-377 -62 63 0
-377 -92 93 0
-377 -95 96 0
-377 -98 99 0
-379 -53 54 0
-379 -56 57 0
-379 -59 60 0
-379 -62 63 0
-379 -92 93 0
-379 -95 96 0
-379 -98 99 0
-381 -53 54 0
-381 -56 57 0
-381 -59 60 0
-381 -62 63 0
-381 -92 93 0
-381 -95 96 0
-381 -98 99 0
-383 -53 54 0
-383 -56 57 0
-383 -59 60 0
-383 -62 63 0
-383 -92 93 0
-383 -95 96 0
-383 -98 99 0
-385 -53 54 0
-385 -56 57 0
-385 -59 60 0
-385 -62 63 0
-385 -92 93 0
-385 -95 96 0
-385 -98 99 0
-387 -53 54 0
-387 -56 57 0
-387 -59 60 0
-387 -62 63 0
-387 -92 93 0
-387 -95 96 0
-387 -98 99 0
-389 -53 54 0
-389 -56 57 0
-389 -59 60 0
-389 -62 63 0
-389 -92 93 0
-389 -95 96 0
-389 -98 99 0
-391 -53 54 0
-391 -56 57 0
-391 -59 60 0
-391 -62 63 0
-391 -92 93 0
-391 -95 96 0
-391 -98 99 0
-393 -53 54 0
-393 -56 57 0
-393 -59 60 0
-393 -62 63 0
-393 -92 93 0
-393 -95 96 0
-393 -98 99 0
-395 -53 54 0
-395 -56 57 0
-395 -59 60 0
-395 -62 63 0
-395 -92 93 0
-395 -95 96 0
-395 -98 99 0
-397 -53 54 0
-397 -56 57 0
-397 -59 60 0
-397 -62 63 0
-397 -92 93 0
-397 -95 96 0
-397 -98 99 0
-399 -53 54 0
-399 -56 57 0
-399 -59 60 0
-399 -62 63 0
-399 -92 93 0
-399 -95 96 0
-399 -98 99 0
-401 -53 54 0
-401 -56 57 0
-401 -59 60 0
-401 -62 63 0
-401 -92 93 0
-401 -95 96 0
-401 -98 99 0
-403 -53 54 0
-403 -56 57 0
-403 -59 60 0
-403 -62 63 0
-403 -92 93 0
-403 -95 96 0
-403 -98 99 0
-405 -53 54 0
-405 -56 57 0
-405 -59 60 0
-405 -62 63 0
-405 -92 93 0
-405 -95 96 0
-405 -98 99 0
-407 -53 54 0
-407 -56 57 0
-407 -59 60 0
-407 -62 63 0
-407 -92 93 0
-407 -95 96 0
-407 -98 99 0
-409 -53 54 0
-409 -56 57 0
-409 -59 60 0
-409 -62 63 0
-409 -92 93 0
-409 -95 96 0
-409 -98 99 0
-411 -53 54 0
-411 -56 57 0
-411 -59 60 0
-411 -62 63 0
-411 -92 93 0
-411 -95 96 0
-411 -98 99 0
-413 -53 54 0
-413 -56 57 0
-413 -59 60 0
-413 -62 63 0
-413 -92 93 0
-413 -95 96 0
-413 -98 99 0
-415 -53 54 0
-415 -56 57 0
-415 -59 60 0
-415 -62 63 0
-415 -92 93 0
-415 -95 96 0
-415 -98 99 0
-417 -53 54 0
-417 -56 57 0
-417 -59 60 0
-417 -62 63 0
-417 -92 93 0
-417 -95 96 0
-417 -98 99 0
-419 -53 54 0
-419 -56 57 0
-419 -59 60 0
-419 -62 63 0
-419 -92 93 0
-419 -95 96 0
-419 -98 99 0
-421 -53 54 0
-421 -56 57 0
-421 -59 60 0
-421 -62 63 0
-421 -92 93 0
-421 -95 96 0
-421 -98 99 0
-423 -53 54 0
-423 -56 57 0
-423 -59 60 0
-423 -62 63 0
-423 -92 93 0
-423 -95 96 0
-423 -98 99 0
-425 -53 54 0
-425 -56 57 0
-425 -59 60 0
-425 -62 63 0
-425 -92 93 0
-425 -95 96 0
-425 -98 99 0
-427 -53 54 0
-427 -56 57 0
-427 -59 60 0
-427 -62 63 0
-427 -92 93 0
-427 -95 96 0
-427 -98 99 0
-429 -53 54 0
-429 -56 57 0
-429 -59 60 0
-429 -62 63 0
-429 -92 93 0
-429 -95 96 0
-429 -98 99 0
-431 -53 54 0
-431 -56 57 0
-431 -59 60 0
-431 -62 63 0
-431 -92 93 0
-431 -95 96 0
-431 -98 99 0
-433 -53 54 0
-433 -56 57 0
-433 -59 60 0
-433 -62 63 0
-433 -92 93 0
-433 -95 96 0
-433 -98 99 0
-435 -53 54 0
-435 -56 57 0
-435 -59 60 0
-435 -62 63 0
-435 -92 93 0
-435 -95 96 0
-435 -98 99 0
-437 -53 54 0
-437 -56 57 0
-437 -59 60 0
-437 -62 63 0
-437 -92 93 0
-437 -95 96 0
-437 -98 99 0
-439 -53 54 0
-439 -56 57 0
-439 -59 60 0
-439 -62 63 0
-439 -92 93 0
-439 -95 96 0
-439 -98 99 0
-441 -53 54 0
-441 -56 57 0
-441 -59 60 0
-441 -62 63 0
-441 -92 93 0
-441 -95 96 0
-441 -98 99 0
-443 -53 54 0
-443 -56 57 0
-443 -59 60 0
-443 -62 63 0
-443 -92 93 0
-443 -95 96 0
-443 -98 99 0
-445 -53 54 0
-445 -56 57 0
-445 -59 60 0
-445 -62 63 0
-445 -92 93 0
-445 -95 96 0
-445 -98 99 0
-447 -53 54 0
-447 -56 57 0
-447 -59 60 0
-447 -62 63 0
-447 -92 93 0
-447 -95 96 0
-447 -98 99 0
-449 -53 54 0
-449 -56 57 0
-449 -59 60 0
-449 -62 63 0
-449 -92 93 0
-449 -95 96 0
-449 -98 99 0
-451 -53 54 0
-451 -56 57 0
-451 -59 60 0
-451 -62 63 0
-451 -92 93 0
-451 -95 96 0
-451 -98 99 0
-453 -53 54 0
-453 -56 57 0
-453 -59 60 0
-453 -62 63 0
-453 -92 93 0
-453 -95 96 0
-453 -98 99 0
-455 -53 54 0
-455 -56 57 0
-455 -59 60 0
-455 -62 63 0
-455 -92 93 0
-455 -95 96 0
-455 -98 99 0
-457 -53 54 0
-457 -56 57 0
-457 -59 60 0
-457 -62 63 0
-457 -92 93 0
-457 -95 96 0
-457 -98 99 0
-459 -53 54 0
-459 -56 57 0
-459 -59 60 0
-459 -62 63 0
-459 -92 93 0
-459 -95 96 0
-459 -98 99 0
-461 -53 54 0
-461 -56 57 0
-461 -59 60 0
-461 -62 63 0
-461 -92 93 0
-461 -95 96 0
-461 -98 99 0
-463 -53 54 0
-463 -56 57 0
-463 -59 60 0
-463 -62 63 0
-463 -92 93 0
-463 -95 96 0
-463 -98 99 0
